*NODE
1,0,0,0
2,0,0,2
3,0,6,0
4,0,6,2
5,40,0,0
6,40,0,2
7,40,6,0
8,40,6,2
9,0,0,1
10,0,0,0.5
11,0,0,1.5
12,0,1,0
13,0,2,0
14,0,3,0
15,0,4,0
16,0,5,0
17,0,0.5,0
18,0,1.5,0
19,0,2.5,0
20,0,3.5,0
21,0,4.5,0
22,0,5.5,0
23,0,6,1
24,0,6,0.5
25,0,6,1.5
26,0,1,2
27,0,2,2
28,0,3,2
29,0,4,2
30,0,5,2
31,0,0.5,2
32,0,1.5,2
33,0,2.5,2
34,0,3.5,2
35,0,4.5,2
36,0,5.5,2
37,40,0,1
38,40,0,0.5
39,40,0,1.5
40,40,1,0
41,40,2,0
42,40,3,0
43,40,4,0
44,40,5,0
45,40,0.5,0
46,40,1.5,0
47,40,2.5,0
48,40,3.5,0
49,40,4.5,0
50,40,5.5,0
51,40,6,1
52,40,6,0.5
53,40,6,1.5
54,40,1,2
55,40,2,2
56,40,3,2
57,40,4,2
58,40,5,2
59,40,0.5,2
60,40,1.5,2
61,40,2.5,2
62,40,3.5,2
63,40,4.5,2
64,40,5.5,2
65,1,0,0
66,2,0,0
67,3,0,0
68,4,0,0
69,5,0,0
70,6,0,0
71,7,0,0
72,8,0,0
73,9,0,0
74,10,0,0
75,11,0,0
76,12,0,0
77,13,0,0
78,14,0,0
79,15,0,0
80,16,0,0
81,17,0,0
82,18,0,0
83,19,0,0
84,20,0,0
85,21,0,0
86,22,0,0
87,23,0,0
88,24,0,0
89,25,0,0
90,26,0,0
91,27,0,0
92,28,0,0
93,29,0,0
94,30,0,0
95,31,0,0
96,32,0,0
97,33,0,0
98,34,0,0
99,35,0,0
100,36,0,0
101,37,0,0
102,38,0,0
103,39,0,0
104,0.5,0,0
105,1.5,0,0
106,2.5,0,0
107,3.5,0,0
108,4.5,0,0
109,5.5,0,0
110,6.5,0,0
111,7.5,0,0
112,8.5,0,0
113,9.5,0,0
114,10.5,0,0
115,11.5,0,0
116,12.5,0,0
117,13.5,0,0
118,14.5,0,0
119,15.5,0,0
120,16.5,0,0
121,17.5,0,0
122,18.5,0,0
123,19.5,0,0
124,20.5,0,0
125,21.5,0,0
126,22.5,0,0
127,23.5,0,0
128,24.5,0,0
129,25.5,0,0
130,26.5,0,0
131,27.5,0,0
132,28.5,0,0
133,29.5,0,0
134,30.5,0,0
135,31.5,0,0
136,32.5,0,0
137,33.5,0,0
138,34.5,0,0
139,35.5,0,0
140,36.5,0,0
141,37.5,0,0
142,38.5,0,0
143,39.5,0,0
144,1,0,2
145,2,0,2
146,3,0,2
147,4,0,2
148,5,0,2
149,6,0,2
150,7,0,2
151,8,0,2
152,9,0,2
153,10,0,2
154,11,0,2
155,12,0,2
156,13,0,2
157,14,0,2
158,15,0,2
159,16,0,2
160,17,0,2
161,18,0,2
162,19,0,2
163,20,0,2
164,21,0,2
165,22,0,2
166,23,0,2
167,24,0,2
168,25,0,2
169,26,0,2
170,27,0,2
171,28,0,2
172,29,0,2
173,30,0,2
174,31,0,2
175,32,0,2
176,33,0,2
177,34,0,2
178,35,0,2
179,36,0,2
180,37,0,2
181,38,0,2
182,39,0,2
183,0.5,0,2
184,1.5,0,2
185,2.5,0,2
186,3.5,0,2
187,4.5,0,2
188,5.5,0,2
189,6.5,0,2
190,7.5,0,2
191,8.5,0,2
192,9.5,0,2
193,10.5,0,2
194,11.5,0,2
195,12.5,0,2
196,13.5,0,2
197,14.5,0,2
198,15.5,0,2
199,16.5,0,2
200,17.5,0,2
201,18.5,0,2
202,19.5,0,2
203,20.5,0,2
204,21.5,0,2
205,22.5,0,2
206,23.5,0,2
207,24.5,0,2
208,25.5,0,2
209,26.5,0,2
210,27.5,0,2
211,28.5,0,2
212,29.5,0,2
213,30.5,0,2
214,31.5,0,2
215,32.5,0,2
216,33.5,0,2
217,34.5,0,2
218,35.5,0,2
219,36.5,0,2
220,37.5,0,2
221,38.5,0,2
222,39.5,0,2
223,1,6,0
224,2,6,0
225,3,6,0
226,4,6,0
227,5,6,0
228,6,6,0
229,7,6,0
230,8,6,0
231,9,6,0
232,10,6,0
233,11,6,0
234,12,6,0
235,13,6,0
236,14,6,0
237,15,6,0
238,16,6,0
239,17,6,0
240,18,6,0
241,19,6,0
242,20,6,0
243,21,6,0
244,22,6,0
245,23,6,0
246,24,6,0
247,25,6,0
248,26,6,0
249,27,6,0
250,28,6,0
251,29,6,0
252,30,6,0
253,31,6,0
254,32,6,0
255,33,6,0
256,34,6,0
257,35,6,0
258,36,6,0
259,37,6,0
260,38,6,0
261,39,6,0
262,0.5,6,0
263,1.5,6,0
264,2.5,6,0
265,3.5,6,0
266,4.5,6,0
267,5.5,6,0
268,6.5,6,0
269,7.5,6,0
270,8.5,6,0
271,9.5,6,0
272,10.5,6,0
273,11.5,6,0
274,12.5,6,0
275,13.5,6,0
276,14.5,6,0
277,15.5,6,0
278,16.5,6,0
279,17.5,6,0
280,18.5,6,0
281,19.5,6,0
282,20.5,6,0
283,21.5,6,0
284,22.5,6,0
285,23.5,6,0
286,24.5,6,0
287,25.5,6,0
288,26.5,6,0
289,27.5,6,0
290,28.5,6,0
291,29.5,6,0
292,30.5,6,0
293,31.5,6,0
294,32.5,6,0
295,33.5,6,0
296,34.5,6,0
297,35.5,6,0
298,36.5,6,0
299,37.5,6,0
300,38.5,6,0
301,39.5,6,0
302,1,6,2
303,2,6,2
304,3,6,2
305,4,6,2
306,5,6,2
307,6,6,2
308,7,6,2
309,8,6,2
310,9,6,2
311,10,6,2
312,11,6,2
313,12,6,2
314,13,6,2
315,14,6,2
316,15,6,2
317,16,6,2
318,17,6,2
319,18,6,2
320,19,6,2
321,20,6,2
322,21,6,2
323,22,6,2
324,23,6,2
325,24,6,2
326,25,6,2
327,26,6,2
328,27,6,2
329,28,6,2
330,29,6,2
331,30,6,2
332,31,6,2
333,32,6,2
334,33,6,2
335,34,6,2
336,35,6,2
337,36,6,2
338,37,6,2
339,38,6,2
340,39,6,2
341,0.5,6,2
342,1.5,6,2
343,2.5,6,2
344,3.5,6,2
345,4.5,6,2
346,5.5,6,2
347,6.5,6,2
348,7.5,6,2
349,8.5,6,2
350,9.5,6,2
351,10.5,6,2
352,11.5,6,2
353,12.5,6,2
354,13.5,6,2
355,14.5,6,2
356,15.5,6,2
357,16.5,6,2
358,17.5,6,2
359,18.5,6,2
360,19.5,6,2
361,20.5,6,2
362,21.5,6,2
363,22.5,6,2
364,23.5,6,2
365,24.5,6,2
366,25.5,6,2
367,26.5,6,2
368,27.5,6,2
369,28.5,6,2
370,29.5,6,2
371,30.5,6,2
372,31.5,6,2
373,32.5,6,2
374,33.5,6,2
375,34.5,6,2
376,35.5,6,2
377,36.5,6,2
378,37.5,6,2
379,38.5,6,2
380,39.5,6,2
381,0,2.50242809148,1.00107061106
382,0,4.5,0.866025403784
383,0,1.5,0.897682537006
384,0,3.50734208615,1.04195960203
385,0,5.34254833384,1.26631771684
386,0,0.65595942519,1.27321077663
387,0,0.593018441527,0.594542307695
388,0,5.42018786628,0.577982064807
389,0,0.296509220764,0.797271153848
390,0,0.296509220764,0.297271153848
391,0,0.796509220764,0.297271153848
392,0,0.327979712595,1.63660538832
393,0,0.327979712595,1.13660538832
394,0,0.827979712595,1.63660538832
395,0,5.21009393314,0.288991032403
396,0,5.71009393314,0.288991032403
397,0,5.71009393314,0.788991032403
398,0,5.67127416692,1.13315885842
399,0,5.67127416692,1.63315885842
400,0,5.17127416692,1.63315885842
401,0,0.624488933359,0.933876542163
402,0,1.25,0.448841268503
403,0,1.75,0.448841268503
404,0,1.04650922076,0.746112422351
405,0,2.25121404574,0.500535305529
406,0,2.75121404574,0.500535305529
407,0,2.00121404574,0.949376574032
408,0,3.25367104307,0.520979801013
409,0,3.75367104307,0.520979801013
410,0,3.00488508882,1.02151510654
411,0,4.25,0.433012701892
412,0,4.75,0.433012701892
413,0,4.00367104307,0.953992502905
414,0,4.96009393314,0.722003734296
415,0,5.38136810006,0.922149890822
416,0,1.75,1.4488412685
417,0,1.25,1.4488412685
418,0,1.0779797126,1.08544665682
419,0,2.75121404574,1.50053530553
420,0,2.25121404574,1.50053530553
421,0,3.75367104307,1.52097980101
422,0,3.25367104307,1.52097980101
423,0,4.75,1.43301270189
424,0,4.25,1.43301270189
425,0,4.92127416692,1.06617156031
426,40,2.50242809148,1.00107061106
427,40,4.5,0.866025403784
428,40,1.5,0.897682537006
429,40,3.50734208615,1.04195960203
430,40,5.34254833384,1.26631771684
431,40,0.65595942519,1.27321077663
432,40,0.593018441527,0.594542307695
433,40,5.42018786628,0.577982064807
434,40,0.296509220764,0.297271153848
435,40,0.296509220764,0.797271153848
436,40,0.796509220764,0.297271153848
437,40,0.327979712595,1.13660538832
438,40,0.327979712595,1.63660538832
439,40,0.827979712595,1.63660538832
440,40,5.71009393314,0.288991032403
441,40,5.21009393314,0.288991032403
442,40,5.71009393314,0.788991032403
443,40,5.67127416692,1.63315885842
444,40,5.67127416692,1.13315885842
445,40,5.17127416692,1.63315885842
446,40,0.624488933359,0.933876542163
447,40,1.75,0.448841268503
448,40,1.25,0.448841268503
449,40,1.04650922076,0.746112422351
450,40,2.75121404574,0.500535305529
451,40,2.25121404574,0.500535305529
452,40,2.00121404574,0.949376574032
453,40,3.75367104307,0.520979801013
454,40,3.25367104307,0.520979801013
455,40,3.00488508882,1.02151510654
456,40,4.75,0.433012701892
457,40,4.25,0.433012701892
458,40,4.00367104307,0.953992502905
459,40,4.96009393314,0.722003734296
460,40,5.38136810006,0.922149890822
461,40,1.25,1.4488412685
462,40,1.75,1.4488412685
463,40,1.0779797126,1.08544665682
464,40,2.25121404574,1.50053530553
465,40,2.75121404574,1.50053530553
466,40,3.25367104307,1.52097980101
467,40,3.75367104307,1.52097980101
468,40,4.25,1.43301270189
469,40,4.75,1.43301270189
470,40,4.92127416692,1.06617156031
471,2.5,0,1.04552734821
472,4.5,0,1.01391715535
473,6.5,0,1.01391715535
474,8.5,0,1.01391715535
475,10.5,0,1.04552734821
476,12.5,0,1.04283541512
477,14.4987611778,0,1.04498111808
478,16.4982656489,0,0.964725528091
479,18.5,0,0.957164584883
480,20.5,0,0.957164584883
481,22.5,0,0.957164584883
482,24.4987611778,0,0.955018881918
483,31.4990599999,0,0.952458707521
484,26.4982656489,0,1.03527447191
485,28.5,0,1.04552734821
486,33.4975719085,0,1.00107061106
487,35.5,0,1.01391715535
488,37.5,0,1.01391715535
489,1.5,0,0.866025403784
490,3.5,0,0.977843165759
491,5.5,0,1.00463905178
492,7.5,0,1.00463905178
493,9.5,0,0.977843165759
494,11.5,0,0.972240920525
495,13.4998525212,0,0.972175893129
496,27.4997935296,0,0.971340808239
497,29.500298822,0,0.962588920636
498,34.4995953181,0,1.00249796107
499,36.5,0,1.00463905178
500,38.5,0,0.897682537006
501,17.4997109415,0,0.986981685496
502,19.5,0,1.0280795477
503,21.5,0,1.0280795477
504,23.4998525212,0,1.02782410687
505,30.5009277113,0,1.01956289249
506,25.4995044711,0,0.998382225638
507,32.4954365942,0,1.02553667012
508,15.4995044711,0,1.00161777436
509,0.657451666159,0,1.26631771684
510,39.3440405748,0,1.27321077663
511,39.4069815585,0,0.594542307695
512,0.579812133724,0,0.577982064807
513,0.289906066862,0,0.288991032403
514,0.289906066862,0,0.788991032403
515,0.789906066862,0,0.288991032403
516,0.32872583308,0,1.13315885842
517,0.32872583308,0,1.63315885842
518,0.82872583308,0,1.63315885842
519,39.7034907792,0,0.797271153848
520,39.7034907792,0,0.297271153848
521,39.2034907792,0,0.297271153848
522,39.6720202874,0,1.63660538832
523,39.6720202874,0,1.13660538832
524,39.1720202874,0,1.63660538832
525,0.618631899941,0,0.922149890822
526,39.3755110666,0,0.933876542163
527,1.75,0,0.433012701892
528,1.25,0,0.433012701892
529,1.03990606686,0,0.722003734296
530,2.75,0,0.522763674107
531,2.25,0,0.522763674107
532,2,0,0.955776375999
533,3.75,0,0.48892158288
534,3.25,0,0.48892158288
535,3,0,1.01168525699
536,4.75,0,0.506958577674
537,4.25,0,0.506958577674
538,4,0,0.995880160554
539,5.75,0,0.502319525891
540,5.25,0,0.502319525891
541,5,0,1.00927810357
542,6.75,0,0.506958577674
543,6.25,0,0.506958577674
544,6,0,1.00927810357
545,7.75,0,0.502319525891
546,7.25,0,0.502319525891
547,7,0,1.00927810357
548,8.75,0,0.506958577674
549,8.25,0,0.506958577674
550,8,0,1.00927810357
551,9.75,0,0.48892158288
552,9.25,0,0.48892158288
553,9,0,0.995880160554
554,10.75,0,0.522763674107
555,10.25,0,0.522763674107
556,10,0,1.01168525699
557,11.75,0,0.486120460263
558,11.25,0,0.486120460263
559,11,0,1.00888413437
560,12.75,0,0.521417707558
561,12.25,0,0.521417707558
562,12,0,1.00753816782
563,13.7499262606,0,0.486087946564
564,13.2499262606,0,0.486087946564
565,12.9999262606,0,1.00750565412
566,14.7493805889,0,0.522490559041
567,14.2493805889,0,0.522490559041
568,13.9993068495,0,1.00857850561
569,15.7497522356,0,0.500808887181
570,15.2497522356,0,0.500808887181
571,14.9991328245,0,1.02329944622
572,16.7491328245,0,0.482362764045
573,16.2491328245,0,0.482362764045
574,15.99888506,0,0.983171651226
575,17.7498554707,0,0.493490842748
576,17.2498554707,0,0.493490842748
577,16.9989882952,0,0.975853606793
578,18.75,0,0.478582292442
579,18.25,0,0.478582292442
580,17.9998554707,0,0.97207313519
581,19.75,0,0.51403977385
582,19.25,0,0.51403977385
583,19,0,0.992622066292
584,20.75,0,0.478582292442
585,20.25,0,0.478582292442
586,20,0,0.992622066292
587,21.75,0,0.51403977385
588,21.25,0,0.51403977385
589,21,0,0.992622066292
590,22.75,0,0.478582292442
591,22.25,0,0.478582292442
592,22,0,0.992622066292
593,23.7499262606,0,0.513912053436
594,23.2499262606,0,0.513912053436
595,22.9999262606,0,0.992494345877
596,24.7493805889,0,0.477509440959
597,24.2493805889,0,0.477509440959
598,23.9993068495,0,0.991421494394
599,25.7497522356,0,0.499191112819
600,25.2497522356,0,0.499191112819
601,24.9991328245,0,0.976700553778
602,26.7491328245,0,0.517637235955
603,26.2491328245,0,0.517637235955
604,25.99888506,0,1.01682834877
605,27.7498967648,0,0.485670404119
606,27.2498967648,0,0.485670404119
607,26.9990295893,0,1.00330764007
608,28.75,0,0.522763674107
609,28.25,0,0.522763674107
610,27.9998967648,0,1.00843407823
611,29.750149411,0,0.481294460318
612,29.250149411,0,0.481294460318
613,29.000149411,0,1.00405813442
614,30.7504638557,0,0.509781446244
615,30.2504638557,0,0.509781446244
616,30.0006132667,0,0.991075906562
617,31.7495299999,0,0.47622935376
618,31.2495299999,0,0.47622935376
619,30.9999938556,0,0.986010800004
620,32.7477182971,0,0.512768335059
621,32.2477182971,0,0.512768335059
622,31.997248297,0,0.988997688819
623,33.7487859543,0,0.500535305529
624,33.2487859543,0,0.500535305529
625,32.9965042513,0,1.01330364059
626,34.749797659,0,0.501248980534
627,34.249797659,0,0.501248980534
628,33.9985836133,0,1.00178428606
629,35.75,0,0.506958577674
630,35.25,0,0.506958577674
631,34.999797659,0,1.00820755821
632,36.75,0,0.502319525891
633,36.25,0,0.502319525891
634,36,0,1.00927810357
635,37.75,0,0.506958577674
636,37.25,0,0.506958577674
637,37,0,1.00927810357
638,38.75,0,0.448841268503
639,38.25,0,0.448841268503
640,38,0,0.955799846177
641,38.9534907792,0,0.746112422351
642,1.25,0,1.43301270189
643,1.75,0,1.43301270189
644,1.07872583308,0,1.06617156031
645,2.25,0,1.52276367411
646,2.75,0,1.52276367411
647,3.25,0,1.48892158288
648,3.75,0,1.48892158288
649,4.25,0,1.50695857767
650,4.75,0,1.50695857767
651,5.25,0,1.50231952589
652,5.75,0,1.50231952589
653,6.25,0,1.50695857767
654,6.75,0,1.50695857767
655,7.25,0,1.50231952589
656,7.75,0,1.50231952589
657,8.25,0,1.50695857767
658,8.75,0,1.50695857767
659,9.25,0,1.48892158288
660,9.75,0,1.48892158288
661,10.25,0,1.52276367411
662,10.75,0,1.52276367411
663,11.25,0,1.48612046026
664,11.75,0,1.48612046026
665,12.25,0,1.52141770756
666,12.75,0,1.52141770756
667,13.2499262606,0,1.48608794656
668,13.7499262606,0,1.48608794656
669,14.2493805889,0,1.52249055904
670,14.7493805889,0,1.52249055904
671,15.2497522356,0,1.50080888718
672,15.7497522356,0,1.50080888718
673,16.2491328245,0,1.48236276405
674,16.7491328245,0,1.48236276405
675,17.2498554707,0,1.49349084275
676,17.7498554707,0,1.49349084275
677,18.25,0,1.47858229244
678,18.75,0,1.47858229244
679,19.25,0,1.51403977385
680,19.75,0,1.51403977385
681,20.25,0,1.47858229244
682,20.75,0,1.47858229244
683,21.25,0,1.51403977385
684,21.75,0,1.51403977385
685,22.25,0,1.47858229244
686,22.75,0,1.47858229244
687,23.2499262606,0,1.51391205344
688,23.7499262606,0,1.51391205344
689,24.2493805889,0,1.47750944096
690,24.7493805889,0,1.47750944096
691,25.2497522356,0,1.49919111282
692,25.7497522356,0,1.49919111282
693,26.2491328245,0,1.51763723595
694,26.7491328245,0,1.51763723595
695,27.2498967648,0,1.48567040412
696,27.7498967648,0,1.48567040412
697,28.25,0,1.52276367411
698,28.75,0,1.52276367411
699,29.250149411,0,1.48129446032
700,29.750149411,0,1.48129446032
701,30.2504638557,0,1.50978144624
702,30.7504638557,0,1.50978144624
703,31.2495299999,0,1.47622935376
704,31.7495299999,0,1.47622935376
705,32.2477182971,0,1.51276833506
706,32.7477182971,0,1.51276833506
707,33.2487859543,0,1.50053530553
708,33.7487859543,0,1.50053530553
709,34.249797659,0,1.50124898053
710,34.749797659,0,1.50124898053
711,35.25,0,1.50695857767
712,35.75,0,1.50695857767
713,36.25,0,1.50231952589
714,36.75,0,1.50231952589
715,37.25,0,1.50695857767
716,37.75,0,1.50695857767
717,38.25,0,1.4488412685
718,38.75,0,1.4488412685
719,38.9220202874,0,1.08544665682
720,2.5,6,1.04552734821
721,4.5,6,1.01391715535
722,6.5,6,1.01391715535
723,8.5,6,1.01391715535
724,10.5,6,1.04552734821
725,12.5,6,1.04283541512
726,14.4987611778,6,1.04498111808
727,16.4982656489,6,0.964725528091
728,18.5,6,0.957164584883
729,20.5,6,0.957164584883
730,22.5,6,0.957164584883
731,24.5,6,0.957164584883
732,26.4987611778,6,0.955018881918
733,28.4982656489,6,1.03527447191
734,30.5,6,1.04552734821
735,32.5,6,1.04552734821
736,34.5,6,1.04552734821
737,36.5,6,1.01391715535
738,38.5,6,1.13397459622
739,1.5,6,0.866025403784
740,3.5,6,0.977843165759
741,5.5,6,1.00463905178
742,7.5,6,1.00463905178
743,9.5,6,0.977843165759
744,11.5,6,0.972240920525
745,13.4998525212,6,0.972175893129
746,29.4997935296,6,0.971340808239
747,31.5,6,0.981606283957
748,33.5,6,0.972561388751
749,35.5,6,0.977843165759
750,37.5,6,0.962461153462
751,17.4997109415,6,0.986981685496
752,19.5,6,1.0280795477
753,21.5,6,1.0280795477
754,23.5,6,1.0280795477
755,25.4998525212,6,1.02782410687
756,27.4995044711,6,0.998382225638
757,15.4995044711,6,1.00161777436
758,0.657451666159,6,1.26631771684
759,39.3425483338,6,0.733682283163
760,39.4201878663,6,1.42201793519
761,0.579812133724,6,0.577982064807
762,0.289906066862,6,0.788991032403
763,0.289906066862,6,0.288991032403
764,0.789906066862,6,0.288991032403
765,0.32872583308,6,1.63315885842
766,0.32872583308,6,1.13315885842
767,0.82872583308,6,1.63315885842
768,39.6712741669,6,0.366841141582
769,39.6712741669,6,0.866841141582
770,39.1712741669,6,0.366841141582
771,39.7100939331,6,1.2110089676
772,39.7100939331,6,1.7110089676
773,39.2100939331,6,1.7110089676
774,0.618631899941,6,0.922149890822
775,39.3813681001,6,1.07785010918
776,1.25,6,0.433012701892
777,1.75,6,0.433012701892
778,1.03990606686,6,0.722003734296
779,2.25,6,0.522763674107
780,2.75,6,0.522763674107
781,2,6,0.955776375999
782,3.25,6,0.48892158288
783,3.75,6,0.48892158288
784,3,6,1.01168525699
785,4.25,6,0.506958577674
786,4.75,6,0.506958577674
787,4,6,0.995880160554
788,5.25,6,0.502319525891
789,5.75,6,0.502319525891
790,5,6,1.00927810357
791,6.25,6,0.506958577674
792,6.75,6,0.506958577674
793,6,6,1.00927810357
794,7.25,6,0.502319525891
795,7.75,6,0.502319525891
796,7,6,1.00927810357
797,8.25,6,0.506958577674
798,8.75,6,0.506958577674
799,8,6,1.00927810357
800,9.25,6,0.48892158288
801,9.75,6,0.48892158288
802,9,6,0.995880160554
803,10.25,6,0.522763674107
804,10.75,6,0.522763674107
805,10,6,1.01168525699
806,11.25,6,0.486120460263
807,11.75,6,0.486120460263
808,11,6,1.00888413437
809,12.25,6,0.521417707558
810,12.75,6,0.521417707558
811,12,6,1.00753816782
812,13.2499262606,6,0.486087946564
813,13.7499262606,6,0.486087946564
814,12.9999262606,6,1.00750565412
815,14.2493805889,6,0.522490559041
816,14.7493805889,6,0.522490559041
817,13.9993068495,6,1.00857850561
818,15.2497522356,6,0.500808887181
819,15.7497522356,6,0.500808887181
820,14.9991328245,6,1.02329944622
821,16.2491328245,6,0.482362764045
822,16.7491328245,6,0.482362764045
823,15.99888506,6,0.983171651226
824,17.2498554707,6,0.493490842748
825,17.7498554707,6,0.493490842748
826,16.9989882952,6,0.975853606793
827,18.25,6,0.478582292442
828,18.75,6,0.478582292442
829,17.9998554707,6,0.97207313519
830,19.25,6,0.51403977385
831,19.75,6,0.51403977385
832,19,6,0.992622066292
833,20.25,6,0.478582292442
834,20.75,6,0.478582292442
835,20,6,0.992622066292
836,21.25,6,0.51403977385
837,21.75,6,0.51403977385
838,21,6,0.992622066292
839,22.25,6,0.478582292442
840,22.75,6,0.478582292442
841,22,6,0.992622066292
842,23.25,6,0.51403977385
843,23.75,6,0.51403977385
844,23,6,0.992622066292
845,24.25,6,0.478582292442
846,24.75,6,0.478582292442
847,24,6,0.992622066292
848,25.2499262606,6,0.513912053436
849,25.7499262606,6,0.513912053436
850,24.9999262606,6,0.992494345877
851,26.2493805889,6,0.477509440959
852,26.7493805889,6,0.477509440959
853,25.9993068495,6,0.991421494394
854,27.2497522356,6,0.499191112819
855,27.7497522356,6,0.499191112819
856,26.9991328245,6,0.976700553778
857,28.2491328245,6,0.517637235955
858,28.7491328245,6,0.517637235955
859,27.99888506,6,1.01682834877
860,29.2498967648,6,0.485670404119
861,29.7498967648,6,0.485670404119
862,28.9990295893,6,1.00330764007
863,30.25,6,0.522763674107
864,30.75,6,0.522763674107
865,29.9998967648,6,1.00843407823
866,31.25,6,0.490803141979
867,31.75,6,0.490803141979
868,31,6,1.01356681609
869,32.25,6,0.522763674107
870,32.75,6,0.522763674107
871,32,6,1.01356681609
872,33.25,6,0.486280694376
873,33.75,6,0.486280694376
874,33,6,1.00904436848
875,34.25,6,0.522763674107
876,34.75,6,0.522763674107
877,34,6,1.00904436848
878,35.25,6,0.48892158288
879,35.75,6,0.48892158288
880,35,6,1.01168525699
881,36.25,6,0.506958577674
882,36.75,6,0.506958577674
883,36,6,0.995880160554
884,37.25,6,0.481230576731
885,37.75,6,0.481230576731
886,37,6,0.988189154406
887,38.25,6,0.566987298108
888,38.75,6,0.566987298108
889,38,6,1.04821787484
890,38.9212741669,6,0.933828439689
891,1.75,6,1.43301270189
892,1.25,6,1.43301270189
893,1.07872583308,6,1.06617156031
894,2.75,6,1.52276367411
895,2.25,6,1.52276367411
896,3.75,6,1.48892158288
897,3.25,6,1.48892158288
898,4.75,6,1.50695857767
899,4.25,6,1.50695857767
900,5.75,6,1.50231952589
901,5.25,6,1.50231952589
902,6.75,6,1.50695857767
903,6.25,6,1.50695857767
904,7.75,6,1.50231952589
905,7.25,6,1.50231952589
906,8.75,6,1.50695857767
907,8.25,6,1.50695857767
908,9.75,6,1.48892158288
909,9.25,6,1.48892158288
910,10.75,6,1.52276367411
911,10.25,6,1.52276367411
912,11.75,6,1.48612046026
913,11.25,6,1.48612046026
914,12.75,6,1.52141770756
915,12.25,6,1.52141770756
916,13.7499262606,6,1.48608794656
917,13.2499262606,6,1.48608794656
918,14.7493805889,6,1.52249055904
919,14.2493805889,6,1.52249055904
920,15.7497522356,6,1.50080888718
921,15.2497522356,6,1.50080888718
922,16.7491328245,6,1.48236276405
923,16.2491328245,6,1.48236276405
924,17.7498554707,6,1.49349084275
925,17.2498554707,6,1.49349084275
926,18.75,6,1.47858229244
927,18.25,6,1.47858229244
928,19.75,6,1.51403977385
929,19.25,6,1.51403977385
930,20.75,6,1.47858229244
931,20.25,6,1.47858229244
932,21.75,6,1.51403977385
933,21.25,6,1.51403977385
934,22.75,6,1.47858229244
935,22.25,6,1.47858229244
936,23.75,6,1.51403977385
937,23.25,6,1.51403977385
938,24.75,6,1.47858229244
939,24.25,6,1.47858229244
940,25.7499262606,6,1.51391205344
941,25.2499262606,6,1.51391205344
942,26.7493805889,6,1.47750944096
943,26.2493805889,6,1.47750944096
944,27.7497522356,6,1.49919111282
945,27.2497522356,6,1.49919111282
946,28.7491328245,6,1.51763723595
947,28.2491328245,6,1.51763723595
948,29.7498967648,6,1.48567040412
949,29.2498967648,6,1.48567040412
950,30.75,6,1.52276367411
951,30.25,6,1.52276367411
952,31.75,6,1.49080314198
953,31.25,6,1.49080314198
954,32.75,6,1.52276367411
955,32.25,6,1.52276367411
956,33.75,6,1.48628069438
957,33.25,6,1.48628069438
958,34.75,6,1.52276367411
959,34.25,6,1.52276367411
960,35.75,6,1.48892158288
961,35.25,6,1.48892158288
962,36.75,6,1.50695857767
963,36.25,6,1.50695857767
964,37.75,6,1.48123057673
965,37.25,6,1.48123057673
966,38.75,6,1.56698729811
967,38.25,6,1.56698729811
968,38.9600939331,6,1.2779962657
969,3.55159143367,4.99098757625,0
970,6.5,0.866025403784,0
971,9.45664888112,0.913575477084,0
972,12.398051455,0.952145134303,0
973,15.6176839088,0.951198115925,0
974,18.5780397906,5.10012962684,0
975,21.4734008376,0.894957387166,0
976,24.4640569749,1.00959760388,0
977,28.4508595232,0.897366569788,0
978,32.5,0.866025403784,0
979,35.4402873173,0.892357778847,0
980,26.3461076904,5.04982513069,0
981,30.5627737395,5.2020158285,0
982,7.45048342899,5.18571409028,0
983,10.5247163935,5.10325334261,0
984,13.4709595189,5.10706901853,0
985,22.5882818802,5.04698911501,0
986,33.5506412629,5.13237143901,0
987,36.5213899674,5.11230092197,0
988,5.41249026228,4.99138448941,0
989,16.420550555,5.1047254511,0
990,20.5,5.13397459622,0
991,4.47751339869,0.682918831221,0
992,17.4712108509,0.950731088491,0
993,19.5,0.845440346931,0
994,26.5062297627,0.872205069461,0
995,30.5627737395,0.797984171498,0
996,24.4623171933,5.09342563201,0
997,28.4735724393,5.14923255549,0
998,2.46509339006,0.89203857571,0
999,39.1339745962,2.5,0
1000,0.940574887773,3.49182698239,0
1001,37.5867256547,0.896296124955,0
1002,39.1569330189,4.4804656044,0
1003,0.865323794354,1.51162734131,0
1004,1.49410771355,5.14214761383,0
1005,39.1532279549,1.50423736928,0
1006,38.1851722747,1.84461212003,0
1007,38.2482542967,2.98431894215,0
1008,37.4019237886,2.5,0
1009,37.4019237886,3.5,0
1010,36.5358983849,3,0
1011,36.5289801457,2.03406383185,0
1012,35.6845315907,2.53306388558,0
1013,35.6723160827,3.5055106476,0
1014,34.8066978625,3.00642908886,0
1015,34.8150927795,3.98404076365,0
1016,33.9378221735,3.5,0
1017,33.938297221,2.50107151481,0
1018,33.059909816,3.04483678454,0
1019,33.0218670555,1.83638649747,0
1020,32.2057713659,2.5,0
1021,32.1985893967,3.50741896254,0
1022,31.3385489673,3.00123649376,0
1023,33.9428778413,1.56603567444,0
1024,31.2530994835,2.1164787622,0
1025,30.465372782,2.51296485948,0
1026,30.4547015245,3.47218029735,0
1027,29.6031340196,2.99752419281,0
1028,29.5848067452,2.03496377273,0
1029,28.7517353337,2.53077276278,0
1030,28.761195685,3.51324346055,0
1031,27.9013022087,3.05199423596,0
1032,27.9204326859,1.8721211458,0
1033,27.0197568195,2.50510930315,0
1034,27.0096189432,3.5,0
1035,26.1452831855,3.00085239319,0
1036,26.0909352796,1.85805330028,0
1037,25.2775681357,2.5,0
1038,25.2781151029,3.50060252449,0
1039,24.4116338931,3.00010042075,0
1040,24.4226054041,2.05747174071,0
1041,23.5646479188,2.53951068096,0
1042,23.5487209534,3.50660185029,0
1043,22.6832142936,3.00768542188,0
1044,22.7672399468,2.1220761518,0
1045,21.8419611505,2.54457584819,0
1046,21.8320855851,3.48576129244,0
1047,20.9552933992,3.00505619011,0
1048,20.9635764299,1.86526411587,0
1049,20.1023162178,2.54925560123,0
1050,20.0753608917,3.49026449242,0
1051,19.2483364475,3.0593654881,0
1052,19.145754924,4.14340541934,0
1053,18.3493649054,3.5,0
1054,18.451489167,2.4608467353,0
1055,17.5003602119,2.99347445589,0
1056,17.4893873222,3.96476549304,0
1057,16.6376792173,3.46442588108,0
1058,16.6235450694,2.4929833895,0
1059,15.7557213759,2.9929015451,0
1060,15.8366417664,4.15091871252,0
1061,14.9002275826,3.52397004294,0
1062,14.9001496659,2.52299646609,0
1063,14.0192378865,3.00000000001,0
1064,14.0151137194,1.85805807495,0
1065,13.1532124827,2.50000000001,0
1066,13.140678974,3.47829132626,0
1067,12.2850981608,2.99638188771,0
1068,12.2722164991,3.97407019525,0
1069,11.4183184255,3.49507534716,0
1070,11.4207422731,2.4992735744,0
1071,10.5545924961,2.9990581536,0
1072,14.93666183,4.40980885911,0
1073,10.5704960296,2.02660388168,0
1074,9.70710048584,2.5311589329,0
1075,9.69201850805,3.50503618109,0
1076,8.82656834023,3.006032519,0
1077,8.83401643991,3.98475656064,0
1078,7.95706005998,3.50000000001,0
1079,7.95764053939,2.50100541984,0
1080,7.07595896006,3.04482576872,0
1081,7.03568789761,1.83742474412,0
1082,6.22500925241,2.50000000001,0
1083,6.21345442911,3.51014702036,0
1084,5.35705804474,3.00169117007,0
1085,7.95760549364,1.56614195184,0
1086,5.35679598582,2.00850228813,0
1087,4.47470759182,2.53212280113,0
1088,4.47203042679,3.47521177045,0
1089,3.6236015044,3.00062368807,0
1090,3.59890395469,2.03830134195,0
1091,2.76996959409,2.53123630671,0
1092,2.77615143462,3.48056119744,0
1093,11.4552688513,1.5244601807,0
1094,1.88207200047,3.00060408109,0
1095,1.89675132541,4.15022622216,0
1096,1.91344407218,1.8459589079,0
1097,11.4262624447,4.48394339854,0
1098,10.5378066223,0.970667085055,0
1099,12.3924928419,5.03801315371,0
1100,35.6514937049,4.48537829515,0
1101,9.66763081974,4.48308974439,0
1102,0.994521574206,2.49349304599,0
1103,34.6967773879,5.03107273275,0
1104,8.88022661259,4.91428324001,0
1105,34.8786525942,1.85529703026,0
1106,24.420910794,4.01724802089,0
1107,23.5455173281,4.5,0
1108,25.3358367885,4.49836950485,0
1109,26.1858269518,3.99051818602,0
1110,22.6817973249,3.98489069403,0
1111,36.5358983849,4,0
1112,37.4164810776,4.51807415329,0
1113,38.2774473945,4.00606693349,0
1114,20.967433969,4.14265897359,0
1115,12.2871870789,2.00000000001,0
1116,13.9882001121,4.15671142451,0
1117,3.53938824829,0.992042129659,0
1118,2.46484841231,5.10581143367,0
1119,6.5,5.13397459622,0
1120,7.03613196653,4.19149749593,0
1121,17.4938946266,4.97582349673,0
1122,21.5,5.13397459622,0
1123,29.5506610137,5.00423225184,0
1124,15.751288694,2.00000000001,0
1125,16.5745113375,1.51102779885,0
1126,18.5281722013,0.857676709907,0
1127,19.0126175302,1.61783585166,0
1128,25.5414885119,0.899249411485,0
1129,29.5424434181,1.00908324205,0
1130,36.5174541196,1.02301076042,0
1131,10.5472565146,4.0115760279,0
1132,5.43497524203,0.950058716357,0
1133,13.5,0.866025403784,0
1134,14.5,0.866025403784,0
1135,20.5,0.866025403784,0
1136,22.4777274577,0.794458612436,0
1137,23.4318219119,0.808603918145,0
1138,27.5,0.866025403784,0
1139,31.5323631037,0.780087680932,0
1140,4.47032973787,5.25996574343,0
1141,19.5400214521,5.12746413426,0
1142,27.4699466883,5.14341107358,0
1143,27.9445990409,4.18990771177,0
1144,31.5323631037,5.21991231907,0
1145,32.5344863231,5.16307518208,0
1146,33.0413635249,4.18862072391,0
1147,3.60959696568,3.93605801225,0
1148,8.89531932741,1.85705245188,0
1149,5.33058019171,3.94169611396,0
1150,17.4698231656,2.00448358075,0
1151,31.2487326496,3.88053327903,0
1152,39.1361015511,3.49514191334,0
1153,29.5967130008,3.94425959691,0
1154,38.3741158119,5.09340792106,0
1155,0.840876955636,4.48041586072,0
1156,1.51114327593,0.832403262993,0
1157,38.5089742408,0.831870023629,0
1158,15.4641506856,5.15144005295,0
1159,34.479130151,0.844262463706,0
1160,8.51364009981,0.838886153878,0
1161,8.04566388592,4.48155607966,0
1162,7.4483114491,0.828387322865,0
1163,19.9377061468,1.65726086594,0
1164,34.0059567327,4.37438790716,0
1165,27.005336364,1.59808501381,0
1166,27,4.39345956289,0
1167,33.4400545263,0.827075849075,0
1168,20.0163339981,4.38727516316,0
1169,14.9563721611,1.63435606825,0
1170,14.4252146143,5.17207854542,0
1171,13.0707129472,1.63524572261,0
1172,13.0529095892,4.35083102365,0
1173,22.0873176371,1.59823458062,0
1174,21.9139197518,4.35885493426,0
1175,31.9200987199,1.57895216611,0
1176,31.9271710515,4.43080430239,0
1177,6.14088099394,1.64571441803,0
1178,6.1106312625,4.35389583998,0
1179,2.85735985186,1.65991545239,0
1180,2.85603136773,4.33809411734,0
1181,28.8441861844,1.66408638792,0
1182,25.1593308612,1.66487441127,0
1183,28.8476595422,4.35967348056,0
1184,25.5,5.318579002,0
1185,9.83347426925,1.65981156572,0
1186,35.8099811535,1.66755865739,0
1187,18.2112883138,4.33682480719,0
1188,16.5085071896,0.674205365748,0
1189,11.4844467041,0.683535626817,0
1190,11.4885912303,5.32899491463,0
1191,16.7756306975,4.33213180689,0
1192,23.5070055686,5.33098099874,0
1193,37.2865033254,1.67027885478,0
1194,23.6491470389,1.67949192431,0
1195,30.3691511264,1.68111956915,0
1196,30.3691511264,4.31888043085,0
1197,4.41172717238,1.64387395806,0
1198,4.41017983952,4.3474165552,0
1199,35.5639354443,5.31440873098,0
1200,9.61451476516,5.3001252654,0
1201,18.1978223571,1.61783801645,0
1202,37.4731409796,5.35519744627,0
1203,39.2679491924,0.732050807569,0
1204,39.2679491924,5.26794919243,0
1205,0.732050807569,0.732050807569,0
1206,0.732050807569,5.26794919243,0
1207,8.23186436357,5.3156148815,0
1208,22.9401279584,1.38465581172,0
1209,31.068718823,1.38299476335,0
1210,31.0689948942,4.61769590091,0
1211,19.3808277407,2.29926761391,0
1212,0.366025403784,0.866025403784,0
1213,0.366025403784,0.366025403784,0
1214,0.866025403784,0.366025403784,0
1215,0.366025403784,5.63397459622,0
1216,0.366025403784,5.13397459622,0
1217,0.866025403784,5.63397459622,0
1218,39.6339745962,0.366025403784,0
1219,39.6339745962,0.866025403784,0
1220,39.1339745962,0.366025403784,0
1221,39.6339745962,5.13397459622,0
1222,39.6339745962,5.63397459622,0
1223,39.1339745962,5.63397459622,0
1224,0.432661897177,1.75581367065,0
1225,0.432661897177,1.25581367065,0
1226,0.798687300962,1.12183907444,0
1227,0.497260787103,2.74674652299,0
1228,0.497260787103,2.24674652299,0
1229,0.92992268428,2.00256019365,0
1230,0.470287443886,3.7459134912,0
1231,0.470287443886,3.2459134912,0
1232,0.96754823099,2.99266001419,0
1233,0.420438477818,4.74020793036,0
1234,0.420438477818,4.24020793036,0
1235,0.890725921704,3.98612142156,0
1236,0.786463881602,4.87418252658,0
1237,39.5766139775,1.25211868464,0
1238,39.5766139775,1.75211868464,0
1239,39.2105885737,1.11814408842,0
1240,39.5669872981,2.25,0
1241,39.5669872981,2.75,0
1242,39.1436012756,2.00211868464,0
1243,39.5680507755,3.24757095667,0
1244,39.5680507755,3.74757095667,0
1245,39.1350380736,2.99757095667,0
1246,39.5784665095,4.2402328022,0
1247,39.5784665095,4.7402328022,0
1248,39.146517285,3.98780375887,0
1249,39.2124411057,4.87420739842,0
1250,1.25557163796,0.416201631496,0
1251,1.75557163796,0.416201631496,0
1252,1.12159704175,0.782227035281,0
1253,2.23254669503,0.446019287855,0
1254,2.73254669503,0.446019287855,0
1255,1.98811833299,0.862220919351,0
1256,3.26969412415,0.49602106483,0
1257,3.76969412415,0.49602106483,0
1258,3.00224081918,0.942040352685,0
1259,4.23875669934,0.34145941561,0
1260,4.73875669934,0.34145941561,0
1261,4.00845082349,0.83748048044,0
1262,5.21748762101,0.475029358179,0
1263,5.71748762101,0.475029358179,0
1264,4.95624432036,0.816488773789,0
1265,6.25,0.433012701892,0
1266,6.75,0.433012701892,0
1267,5.96748762101,0.908042060071,0
1268,7.22415572455,0.414193661433,0
1269,7.72415572455,0.414193661433,0
1270,6.97415572455,0.847206363325,0
1271,8.2568200499,0.419443076939,0
1272,8.7568200499,0.419443076939,0
1273,7.98097577445,0.833636738372,0
1274,9.22832444056,0.456787738542,0
1275,9.72832444056,0.456787738542,0
1276,8.98514449046,0.876230815481,0
1277,10.2689033112,0.485333542527,0
1278,10.7689033112,0.485333542527,0
1279,9.99722775173,0.942121281069,0
1280,11.242223352,0.341767813408,0
1281,11.742223352,0.341767813408,0
1282,11.0111266632,0.827101355936,0
1283,12.1990257275,0.476072567152,0
1284,12.6990257275,0.476072567152,0
1285,11.9412490795,0.81784038056,0
1286,13.25,0.433012701892,0
1287,13.75,0.433012701892,0
1288,12.9490257275,0.909085269044,0
1289,14.25,0.433012701892,0
1290,14.75,0.433012701892,0
1291,14,0.866025403784,0
1292,15.3088419544,0.475599057963,0
1293,15.8088419544,0.475599057963,0
1294,15.0588419544,0.908611759855,0
1295,16.2542535948,0.337102682874,0
1296,16.7542535948,0.337102682874,0
1297,16.0630955492,0.812701740837,0
1298,17.2356054255,0.475365544245,0
1299,17.7356054255,0.475365544245,0
1300,16.9898590202,0.812468227119,0
1301,18.2640861007,0.428838354954,0
1302,18.7640861007,0.428838354954,0
1303,17.9996915261,0.904203899199,0
1304,19.25,0.422720173466,0
1305,19.75,0.422720173466,0
1306,19.0140861007,0.851558528419,0
1307,20.25,0.433012701892,0
1308,20.75,0.433012701892,0
1309,20,0.855732875358,0
1310,21.2367004188,0.447478693583,0
1311,21.7367004188,0.447478693583,0
1312,20.9867004188,0.880491395475,0
1313,22.2388637289,0.397229306218,0
1314,22.7388637289,0.397229306218,0
1315,21.9755641476,0.844707999801,0
1316,23.215910956,0.404301959073,0
1317,23.715910956,0.404301959073,0
1318,22.9547746848,0.801531265291,0
1319,24.2320284875,0.504798801941,0
1320,24.7320284875,0.504798801941,0
1321,23.9479394434,0.909100761013,0
1322,25.2707442559,0.449624705743,0
1323,25.7707442559,0.449624705743,0
1324,25.0027727434,0.954423507683,0
1325,26.2531148814,0.43610253473,0
1326,26.7531148814,0.43610253473,0
1327,26.0238591373,0.885727240473,0
1328,27.25,0.433012701892,0
1329,27.75,0.433012701892,0
1330,27.0031148814,0.869115236623,0
1331,28.2254297616,0.448683284894,0
1332,28.7254297616,0.448683284894,0
1333,27.9754297616,0.881695986786,0
1334,29.2712217091,0.504541621023,0
1335,29.7712217091,0.504541621023,0
1336,28.9966514707,0.953224905917,0
1337,30.2813868698,0.398992085749,0
1338,30.7813868698,0.398992085749,0
1339,30.0526085788,0.903533706772,0
1340,31.2661815519,0.390043840466,0
1341,31.7661815519,0.390043840466,0
1342,31.0475684216,0.789035926215,0
1343,32.25,0.433012701892,0
1344,32.75,0.433012701892,0
1345,32.0161815519,0.823056542358,0
1346,33.2200272631,0.413537924538,0
1347,33.7200272631,0.413537924538,0
1348,32.9700272631,0.84655062643,0
1349,34.2395650755,0.422131231853,0
1350,34.7395650755,0.422131231853,0
1351,33.9595923386,0.835669156391,0
1352,35.2201436586,0.446178889423,0
1353,35.7201436586,0.446178889423,0
1354,34.9597087341,0.868310121276,0
1355,36.2587270598,0.51150538021,0
1356,36.7587270598,0.51150538021,0
1357,35.9788707184,0.957684269633,0
1358,37.2933628274,0.448148062478,0
1359,37.7933628274,0.448148062478,0
1360,37.0520898872,0.959653442688,0
1361,38.2544871204,0.415935011814,0
1362,38.7544871204,0.415935011814,0
1363,38.0478499478,0.864083074292,0
1364,38.8884617166,0.781960415599,0
1365,1.74705385678,5.57107380691,0
1366,1.24705385678,5.57107380691,0
1367,1.11307926056,5.20504840313,0
1368,2.73242420615,5.55290571684,0
1369,2.23242420615,5.55290571684,0
1370,1.97947806293,5.12397952375,0
1371,3.77579571683,5.49549378812,0
1372,3.27579571683,5.49549378812,0
1373,3.00821992299,5.04839950496,0
1374,4.73516486894,5.62998287171,0
1375,4.23516486894,5.62998287171,0
1376,4.01096058577,5.12547665984,0
1377,5.70624513114,5.49569224471,0
1378,5.20624513114,5.49569224471,0
1379,4.94141000008,5.12567511642,0
1380,6.75,5.56698729811,0
1381,6.25,5.56698729811,0
1382,5.95624513114,5.06267954281,0
1383,7.7252417145,5.59285704514,0
1384,7.2252417145,5.59285704514,0
1385,6.9752417145,5.15984434325,0
1386,8.61593218178,5.65780744075,0
1387,8.11593218178,5.65780744075,0
1388,7.84117389628,5.25066448589,0
1389,9.80725738258,5.6500626327,0
1390,9.30725738258,5.6500626327,0
1391,8.94011330629,5.45714162001,0
1392,9.24737068887,5.10720425271,0
1393,8.55604548808,5.11494906076,0
1394,10.7623581967,5.55162667131,0
1395,10.2623581967,5.55162667131,0
1396,10.0696155793,5.20168930401,0
1397,11.7442956152,5.66449745732,0
1398,11.2442956152,5.66449745732,0
1399,11.0066538119,5.21612412862,0
1400,12.696246421,5.51900657686,0
1401,12.196246421,5.51900657686,0
1402,11.9405420361,5.18350403417,0
1403,13.7354797594,5.55353450926,0
1404,13.2354797594,5.55353450926,0
1405,12.9317261804,5.07254108612,0
1406,14.7126073072,5.58603927271,0
1407,14.2126073072,5.58603927271,0
1408,13.9480870666,5.13957378197,0
1409,15.7320753428,5.57572002648,0
1410,15.2320753428,5.57572002648,0
1411,14.94468265,5.16175929919,0
1412,16.7102752775,5.55236272555,0
1413,16.2102752775,5.55236272555,0
1414,15.9423506203,5.12808275203,0
1415,17.7469473133,5.48791174837,0
1416,17.2469473133,5.48791174837,0
1417,16.9572225908,5.04027447392,0
1418,18.7890198953,5.55006481342,0
1419,18.2890198953,5.55006481342,0
1420,18.0359672086,5.03797656179,0
1421,19.7700107261,5.56373206713,0
1422,19.2700107261,5.56373206713,0
1423,19.0590306214,5.11379688055,0
1424,20.75,5.56698729811,0
1425,20.25,5.56698729811,0
1426,20.0200107261,5.13071936524,0
1427,21.75,5.56698729811,0
1428,21.25,5.56698729811,0
1429,21,5.13397459622,0
1430,22.7941409401,5.52349455751,0
1431,22.2941409401,5.52349455751,0
1432,22.0441409401,5.09048185561,0
1433,23.7535027843,5.66549049937,0
1434,23.2535027843,5.66549049937,0
1435,23.0476437244,5.18898505688,0
1436,24.7311585967,5.546712816,0
1437,24.2311585967,5.546712816,0
1438,23.984661381,5.21220331538,0
1439,25.75,5.659289501,0
1440,25.25,5.659289501,0
1441,24.9811585967,5.206002317,0
1442,26.6730538452,5.52491256535,0
1443,26.1730538452,5.52491256535,0
1444,25.9230538452,5.18420206635,0
1445,27.7349733441,5.57170553679,0
1446,27.2349733441,5.57170553679,0
1447,26.9080271893,5.09661810214,0
1448,28.7367862197,5.57461627774,0
1449,28.2367862197,5.57461627774,0
1450,27.9717595638,5.14632181454,0
1451,29.7753305068,5.50211612592,0
1452,29.2753305068,5.50211612592,0
1453,29.0121167265,5.07673240366,0
1454,30.7813868698,5.60100791425,0
1455,30.2813868698,5.60100791425,0
1456,30.0567173766,5.10312404017,0
1457,31.7661815519,5.60995615953,0
1458,31.2661815519,5.60995615953,0
1459,31.0475684216,5.21096407379,0
1460,32.7672431616,5.58153759104,0
1461,32.2672431616,5.58153759104,0
1462,32.0334247134,5.19149375057,0
1463,33.7753206314,5.56618571951,0
1464,33.2753206314,5.56618571951,0
1465,33.042563793,5.14772331054,0
1466,34.8483886939,5.51553636637,0
1467,34.3483886939,5.51553636637,0
1468,34.1237093254,5.08172208588,0
1469,35.7819677222,5.65720436549,0
1470,35.2819677222,5.65720436549,0
1471,35.1303564161,5.17274073186,0
1472,36.7606949837,5.55615046098,0
1473,36.2606949837,5.55615046098,0
1474,36.0426627059,5.21335482647,0
1475,37.7365704898,5.67759872314,0
1476,37.2365704898,5.67759872314,0
1477,36.9972654735,5.23374918412,0
1478,38.687057906,5.54670396053,0
1479,38.187057906,5.54670396053,0
1480,37.9236283958,5.22430268367,0
1481,38.8210325022,5.18067855675,0
1482,3.2038114007,4.66454084679,0
1483,2.66043989002,4.72195277551,0
1484,4.4402547887,4.80369114931,0
1485,3.9808856366,4.66920206572,0
1486,3.58059419968,4.46352279425,0
1487,3.23281416671,4.13707606479,0
1488,4.0098884026,4.14173728372,0
1489,6.7678439488,1.35172507395,0
1490,7.24199967336,1.33290603349,0
1491,6.32044049697,1.25586991091,0
1492,6.58828444577,1.74156958108,0
1493,5.78792811798,1.29788656719,0
1494,9.64506157519,1.2866935214,0
1495,10.1856404458,1.31523932539,0
1496,9.17598410426,1.38531396448,0
1497,8.70447971361,1.34796930288,0
1498,9.36439679833,1.7584320088,0
1499,11.9266601531,1.2383026575,0
1500,11.8712279651,1.76223009036,0
1501,12.3426192669,1.47607256715,0
1502,11.4698577777,1.10399790376,0
1503,12.678950013,1.81762286131,0
1504,12.7343822011,1.29369542846,0
1505,13.2853564736,1.2506355632,0
1506,15.6844863014,1.47559905797,0
1507,16.1629000158,1.75551389943,0
1508,16.0960976231,1.23111295739,0
1509,15.2870280349,1.29277709209,0
1510,15.3538304275,1.81717803413,0
1511,16.5415092635,1.0926165823,0
1512,14.7281860805,1.25019073602,0
1513,18.8618973573,4.62176752309,0
1514,19.342888188,4.6354347768,0
1515,18.6785216189,4.24011511326,0
1516,18.3946640522,4.71847721702,0
1517,17.8525914702,4.65632415196,0
1518,21.2184886337,1.38011075152,0
1519,20.7317882149,1.36564475983,0
1520,21.5254470335,1.73174934825,0
1521,21.7803592373,1.24659598389,0
1522,22.2825225474,1.19634659653,0
1523,24.4433311895,1.53353467229,0
1524,24.7909681327,1.86117307599,0
1525,24.8116939181,1.33723600758,0
1526,24.0566020069,1.3445447641,0
1527,24.0358762215,1.86848183251,0
1528,25.3504096865,1.28206191138,0
1529,23.5404844754,1.24404792123,0
1530,28.1856461046,1.38474385779,0
1531,27.7102163429,1.36907327479,0
1532,28.3823094352,1.76810376686,0
1533,28.6475228538,1.28072647885,0
1534,29.1933148013,1.33658481498,0
1535,32.7609335277,1.35120595063,0
1536,33.2309607909,1.33173117327,0
1537,32.21004936,1.22248878495,0
1538,32.4709828877,1.70766933179,0
1539,31.7262309118,1.17951992352,0
1540,35.1594699557,1.37382740455,0
1541,34.6788913726,1.34977974698,0
1542,35.3443168738,1.76142784383,0
1543,35.6251342354,1.27995821812,0
1544,36.1637176365,1.3452847089,0
1545,25.8409722395,4.77409731777,0
1546,26.2659673211,4.52017165836,0
1547,25.7608318702,4.24444384543,0
1548,25.4179183943,4.90847425342,0
1549,26.6730538452,4.72164234679,0
1550,26.5929134759,4.19198887445,0
1551,27.2349733441,4.76843531824,0
1552,30.465962433,4.76044812968,0
1553,29.95990607,4.66155634135,0
1554,31.3006789989,4.91880410999,0
1555,30.8158843168,4.90985586471,0
1556,30.7190730103,4.46828816588,0
1557,7.24330769776,4.6886057931,0
1558,6.76806598326,4.66273604607,0
1559,7.74807365746,4.83363508497,0
1560,7.54089792622,4.33652678779,0
1561,8.13876412475,4.89858548058,0
1562,10.9754894191,4.79359837057,0
1563,10.9867594796,4.24775971322,0
1564,10.535986454,4.55741468526,0
1565,11.4574268375,4.90646915658,0
1566,10.0961736066,4.7931715435,0
1567,10.1074436672,4.24733288614,0
1568,9.64107279245,4.8916075049,0
1569,13.261934554,4.72895002109,0
1570,12.7227012156,4.69442208868,0
1571,13.7295798155,4.63189022152,0
1572,14.2067073632,4.66439498496,0
1573,13.5205548507,4.25377122408,0
1574,23.0668996041,4.77349455751,0
1575,23.1136573265,4.24244534702,0
1576,22.6350396025,4.51593990452,0
1577,23.5262614484,4.91549049937,0
1578,22.2978585383,4.17187281415,0
1579,22.251100816,4.70292202464,0
1580,21.7069598759,4.74641476524,0
1581,34.3513670603,4.70273031996,0
1582,33.7782989978,4.75337967309,0
1583,33.2960023939,4.66049608146,0
1584,32.787924924,4.675847953,0
1585,33.5236601288,4.28150431554,0
1586,36.0864418361,4.79883960856,0
1587,36.5286441761,4.55615046098,0
1588,36.0936960449,4.24268914758,0
1589,35.6077145746,4.89989351307,0
1590,36.9689355225,4.81518753763,0
1591,36.9761897313,4.25903707665,0
1592,37.4448110286,4.93663579978,0
1593,6.30531563125,4.7439352181,0
1594,5.76156076239,4.67264016469,0
1595,4.9113350509,4.66940052231,0
1596,5.371535227,4.46654030168,0
1597,5.72060572711,4.14779597697,0
1598,4.87038001562,4.14455633458,0
1599,16.1285961607,4.62782208181,0
1600,15.650396226,4.65117938274,0
1601,16.5980906263,4.718428629,0
1602,16.306136232,4.24152525971,0
1603,17.1347626621,4.65397765181,0
1604,20.7337169845,4.6383167849,0
1605,21.2337169845,4.6383167849,0
1606,20.4918839835,4.26496706837,0
1607,20.258166999,4.76062487969,0
1608,19.7781777251,4.75736964871,0
1609,3.97555771034,1.31795804386,0
1610,4.44462028553,1.16339639464,0
1611,4.9233512072,1.29696633721,0
1612,17.0228610942,1.23087944367,0
1613,17.0221672515,1.7577556898,0
1614,17.4705170083,1.47760733462,0
1615,17.834516604,1.28428455247,0
1616,18.3629972792,1.23775736318,0
1617,17.8338227614,1.8111607986,0
1618,18.7703948658,1.23775628079,0
1619,19.2563087651,1.2316380993,0
1620,19.4751618385,1.6375483588,0
1621,19.7188530734,1.25135060644,0
1622,20.2188530734,1.26164313486,0
1623,26.2985825212,1.36512918487,0
1624,25.8162118957,1.37865135588,0
1625,26.5481358218,1.72806915705,0
1626,26.7557830634,1.23514504164,0
1627,27.252668182,1.2320552088,0
1628,29.9557972722,1.3451014056,0
1629,30.465962433,1.23955187032,0
1630,30.8157462812,1.09048946742,0
1631,31.3005409633,1.08154122214,0
1632,30.7189349747,1.53205716625,0
1633,24.4416139937,4.55533682645,0
1634,23.9832140611,4.25862401044,0
1635,24.0039172607,4.79671281601,0
1636,24.8990769909,4.79589756843,0
1637,24.8783737913,4.25780876287,0
1638,29.199160278,4.6819528662,0
1639,28.6606159908,4.75445301802,0
1640,28.2090857401,4.66957013363,0
1641,27.7072728646,4.66665939268,0
1642,28.3961292915,4.27479059616,0
1643,2.18926873112,1.3689987418,0
1644,1.71229367405,1.33918108545,0
1645,2.38540196202,1.75293718014,0
1646,2.66122662096,1.27597701405,0
1647,3.19837405008,1.32597879102,0
1648,38.6692001148,1.67442474465,0
1649,38.6595734354,2.17230606001,0
1650,38.2167132857,2.41446553109,0
1651,38.6911144465,2.74215947108,0
1652,38.6921779239,3.23973042775,0
1653,1.41132344412,3.24621553174,0
1654,1.41866310659,3.82102660227,0
1655,1.88941166294,3.57541515163,0
1656,1.43829678734,2.74704856354,0
1657,1.36881414052,4.31532104144,0
1658,37.8859489647,1.37045412249,0
1659,38.3470732578,1.33824107183,0
1660,37.4366144901,1.28328748987,0
1661,37.7358378001,1.75744548741,0
1662,36.9019787225,1.3466448076,0
1663,38.7171902067,4.24326626895,0
1664,38.7067744728,3.75060442342,0
1665,38.3257816032,4.54973742728,0
1666,38.7655244154,4.78693676273,0
1667,1.38938393327,1.6787931246,0
1668,1.45398282319,2.16972597694,0
1669,1.18823353514,1.17201530215,0
1670,1.69542951948,4.64618691799,0
1671,2.18079986886,4.62801882792,0
1672,1.16749233459,4.81128173728,0
1673,38.8311010979,1.16805369645,0
1674,37.7935480317,2.17230606001,0
1675,37.8250890427,2.74215947108,0
1676,37.344213557,2.08513942739,0
1677,37.4019237886,3,0
1678,37.8250890427,3.24215947108,0
1679,37.8396855916,3.75303346675,0
1680,38.2628508456,3.49519293782,0
1681,36.9689110868,2.75,0
1682,36.9689110868,3.25,0
1683,36.9654519672,2.26703191592,0
1684,36.5324392653,2.51703191592,0
1685,36.9077417356,1.85217134332,0
1686,36.5358983849,3.5,0
1687,36.9689110868,3.75,0
1688,37.4092024331,4.00903707665,0
1689,37.8469642361,4.26207054339,0
1690,36.1067558682,2.28356385871,0
1691,36.1102149878,2.76653194279,0
1692,35.6784238367,3.01928726659,0
1693,36.1041072338,3.2527553238,0
1694,36.1041072338,3.7527553238,0
1695,36.1694806496,1.85081124462,0
1696,35.7472563721,2.10031127148,0
1697,36.5232171326,1.52853729613,0
1698,35.2456147266,2.76974648722,0
1699,35.2395069726,3.25596986823,0
1700,35.2815920924,2.19418045792,0
1701,34.8426752283,2.43086305956,0
1702,34.810895321,3.49523492625,0
1703,35.2437044311,3.74477570562,0
1704,35.2332932422,4.2347095294,0
1705,35.6619048938,3.99544447137,0
1706,34.372260018,3.25321454443,0
1707,34.3764574765,3.74202038182,0
1708,34.3724975418,2.75375030184,0
1709,33.9380596973,3.00053575741,0
1710,34.4084749076,2.17818427254,0
1711,33.9718894531,3.93719395358,0
1712,34.4105247561,4.1792143354,0
1713,34.7559350837,4.5075567482,0
1714,35.1741355464,4.75822551395,0
1715,33.4991035185,2.77295414968,0
1716,33.4988659948,3.27241839227,0
1717,33.0506366705,3.61672875423,0
1718,33.4895928492,3.84431036196,0
1719,33.4800821383,2.16872900614,0
1720,33.0408884357,2.44061164101,0
1721,33.9405875312,2.03355359463,0
1722,33.4823724484,1.70121108596,0
1723,34.4107652177,1.71066635235,0
1724,32.6138192107,2.16819324874,0
1725,32.632840591,2.77241839227,0
1726,32.2021803813,3.00370948127,0
1727,32.6292496064,3.27612787354,0
1728,32.6199764608,3.84801984323,0
1729,32.0629350429,2.03947608306,0
1730,33.6914661838,1.19655576176,0
1731,31.7721601666,2.75061824688,0
1732,31.768569182,3.25432772815,0
1733,31.7294354247,2.3082393811,0
1734,31.2958242254,2.55885762798,0
1735,31.5865991017,1.84771546416,0
1736,31.2936408085,3.44088488639,0
1737,31.7236610232,3.69397612079,0
1738,32.0628802241,3.96911163247,0
1739,32.4842672882,4.30971251315,0
1740,31.5879518506,4.15566879071,0
1741,30.8592361328,2.31472181084,0
1742,30.9019608747,2.75710067662,0
1743,30.4600371533,2.99257257842,0
1744,30.8966252459,3.23670839555,0
1745,30.8517170871,3.67635678819,0
1746,34.2110039961,1.20514906907,0
1747,30.8111253049,1.89879916568,0
1748,30.4172619542,2.09704221432,0
1749,31.4944087714,1.48097346473,0
1750,31.1609091532,1.74973676277,0
1751,30.0342534008,2.75524452614,0
1752,30.028917772,3.23485224508,0
1753,30.0250897636,2.27396431611,0
1754,29.5939703824,2.51624398277,0
1755,29.9769789358,1.85804167094,0
1756,29.5999235102,3.47089189486,0
1757,30.0257072627,3.70821994713,0
1758,30.4119263254,3.8955303641,0
1759,30.808941888,4.09970685494,0
1760,29.9829320636,4.13157001388,0
1761,29.1682710394,2.28286826776,0
1762,29.1774346766,2.76414847779,0
1763,28.7564655093,3.02200811167,0
1764,29.1821648523,3.25538382668,0
1765,29.1789543429,3.72875152873,0
1766,29.2144964648,1.84952508033,0
1767,28.797960759,2.09742957535,0
1768,29.5636250816,1.52202350739,0
1769,28.3265187712,2.79138349937,0
1770,28.3312489468,3.28261884826,0
1771,28.3360840098,2.20144695429,0
1772,27.9108674473,2.46205769088,0
1773,27.9229506248,3.62095097387,0
1774,28.3528973629,3.85157558616,0
1775,28.8044276136,3.93645847056,0
1776,29.2221862715,4.15196653873,0
1777,27.4700947527,2.18861522447,0
1778,27.4605295141,2.77855176955,0
1779,27.0146878813,3.00255465157,0
1780,27.455460576,3.27599711798,0
1781,27.477108992,3.84495385589,0
1782,27.4628845249,1.73510307981,0
1783,27.0125465917,2.05159715848,0
1784,26.5825200025,2.75298084817,0
1785,26.5774510644,3.2504261966,0
1786,26.5553460495,2.18158130172,0
1787,26.1181092325,2.42945284674,0
1788,26.1655550686,3.49568528961,0
1789,26.5977229475,3.74525909301,0
1790,27.0048094716,3.94672978145,0
1791,27.4722995204,4.29168363733,0
1792,25.6842517076,2.17902665014,0
1793,25.7114256606,2.7504261966,0
1794,25.2778416193,3.00030126225,0
1795,25.7116991442,3.25072745884,0
1796,25.7319710273,3.74556035526,0
1797,25.6251330704,1.76146385578,0
1798,25.2184494984,2.08243720564,0
1799,24.8446010144,2.75005021038,0
1800,24.844874498,3.25035147262,0
1801,24.8500867699,2.27873587035,0
1802,24.4171196486,2.52878608073,0
1803,24.4162723436,3.50867422082,0
1804,24.8495129485,3.75892527269,0
1805,25.3069759457,3.99948601467,0
1806,23.9936266614,2.29849121083,0
1807,23.9881409059,2.76980555086,0
1808,23.5566844361,3.02305626563,0
1809,23.9801774233,3.25335113552,0
1810,23.9848158737,3.76192493559,0
1811,23.6068974789,2.10950130264,0
1812,23.1239311062,2.77359805142,0
1813,23.1159676235,3.25714363608,0
1814,23.1659439328,2.33079341638,0
1815,22.7252271202,2.56488078684,0
1816,23.2081934928,1.90078403806,0
1817,22.6825058093,3.49628805796,0
1818,23.1152591391,3.74574627216,0
1819,23.5471191408,4.00330092515,0
1820,22.3046005486,2.33332599999,0
1821,22.2625877221,2.77613063503,0
1822,21.8370233678,3.01516857031,0
1823,22.2576499394,3.24672335716,0
1824,22.256941455,3.73532599324,0
1825,22.4272787919,1.86015536621,0
1826,21.9646393938,2.0714052144,0
1827,22.8536839526,1.75336598176,0
1828,22.5137227977,1.49144519617,0
1829,23.2946374987,1.53207386802,0
1830,21.3986272748,2.77481601915,0
1831,21.3936894921,3.24540874128,0
1832,21.4027687902,2.20491998203,0
1833,20.9594349145,2.43516015299,0
1834,20.9613636841,3.57385758185,0
1835,21.399759777,3.81421013302,0
1836,21.8730026685,3.92230811335,0
1837,21.4406768604,4.25075695393,0
1838,20.5329463238,2.20725985855,0
1839,20.5288048085,2.77715589567,0
1840,20.0888385547,3.01976004682,0
1841,20.5153271454,3.24766034126,0
1842,20.5213974303,3.816461733,0
1843,20.4506412883,1.76126249091,0
1844,20.0200111823,2.10325823359,0
1845,19.6753263327,2.80431054467,0
1846,19.6618486696,3.27481499026,0
1847,19.7415719793,2.42426160757,0
1848,19.3145820941,2.67931655101,0
1849,19.6592669438,1.97826423993,0
1850,19.1970456857,3.60138545372,0
1851,19.6105579078,3.81683495588,0
1852,19.581044461,4.26534029125,0
1853,20.0458474449,3.93876982779,0
1854,18.7988506765,3.27968274405,0
1855,18.7475599147,3.82170270967,0
1856,18.8499128073,2.7601061117,0
1857,18.4004270362,2.98042336765,0
1858,18.9161584539,2.38005717461,0
1859,18.2803266096,3.9184124036,0
1860,17.9759246894,2.72716059559,0
1861,17.9248625586,3.24673722795,0
1862,17.4948737671,3.47911997446,0
1863,17.9193761138,3.73238274652,0
1864,17.850337818,4.15079515012,0
1865,17.9606561663,2.23266515802,0
1866,17.4850916888,2.49897901832,0
1867,18.7320533486,2.03934129348,0
1868,18.6052199436,1.61783693406,0
1869,18.324655762,2.03934237588,0
1870,19.1967226355,1.95855173279,0
1871,17.0690197146,3.22895016848,0
1872,17.0635332698,3.71459568706,0
1873,17.0619526407,2.74322892269,0
1874,16.6306121434,2.97870463529,0
1875,17.0466841175,2.24873348512,0
1876,16.7066549574,3.89827884399,0
1877,17.1325090099,4.14844864997,0
1878,17.4916409744,4.47029449489,0
1879,16.1896332227,2.7429424673,0
1880,16.1967002966,3.22866371309,0
1881,15.7961815712,3.57191012881,0
1882,16.2371604919,3.8076722968,0
1883,16.1874168817,2.24649169475,0
1884,15.753505035,2.49645077255,0
1885,16.5990282035,2.00200559417,0
1886,15.3279744793,3.25843579402,0
1887,15.3684346745,3.83744437773,0
1888,15.3279355209,2.7579490056,0
1889,14.9001886242,3.02348325452,0
1890,15.3257191799,2.26149823305,0
1891,14.9184447063,3.96688945102,0
1892,15.3866517982,4.28036378581,0
1893,15.2004062578,4.78062445603,0
1894,14.4596937762,2.76149823305,0
1895,14.4597327345,3.26198502147,0
1896,14.0037189993,3.57835571226,0
1897,14.4442138474,3.84034073372,0
1898,14.4624309711,4.28326014181,0
1899,14.4576316926,2.19052727052,0
1900,14.0171758029,2.42902903748,0
1901,14.9282609135,2.07867626717,0
1902,14.4857429402,1.7462070716,0
1903,13.584163101,2.17902903748,0
1904,13.5862251846,2.75000000001,0
1905,13.1469457284,2.98914566313,0
1906,13.5799584303,3.23914566313,0
1907,13.5644395431,3.81750137538,0
1908,13.5429133333,1.74665189878,0
1909,13.1119627149,2.06762286131,0
1910,13.7575568597,1.36204173937,0
1911,14.2575568597,1.36204173937,0
1912,12.7191553217,2.74819094386,0
1913,12.7128885674,3.23733660699,0
1914,12.7201997808,2.25000000001,0
1915,12.2861426198,2.49819094386,0
1916,12.27865733,3.48522604148,0
1917,12.7064477366,3.72618076075,0
1918,12.6625630442,4.16245060945,0
1919,13.0967942816,3.91456117495,0
1920,11.8517082931,3.24572861744,0
1921,11.8452674623,3.73457277121,0
1922,11.8529202169,2.74782773106,0
1923,11.4195303493,2.99717446078,0
1924,11.853964676,2.2496367872,0
1925,11.4222904351,3.98950937285,0
1926,11.8492394719,4.22900679689,0
1927,11.9093776433,4.76097827613,0
1928,12.3323546705,4.50604167448,0
1929,10.9876673846,2.749165864,0
1930,10.9864554608,3.24706675038,0
1931,10.5509245053,3.50531709075,0
1932,10.98278747,3.75332568753,0
1933,10.9956191513,2.26293872804,0
1934,10.5625442628,2.51283101764,0
1935,11.4380055622,2.01186687755,0
1936,11.0128824404,1.77553203119,0
1937,10.1387982577,2.27888140729,0
1938,10.1308464909,2.76510854325,0
1939,9.69955949694,3.01809755699,0
1940,10.123305502,3.25204716734,0
1941,10.1196375113,3.75830610449,0
1942,14.6809382221,4.79094370226,0
1943,10.2019851494,1.8432077237,0
1944,9.77028737755,2.09548524931,0
1945,10.9965377368,1.24756363288,0
1946,10.554151326,1.49863548337,0
1947,9.26683441303,2.76859572595,0
1948,9.25929342414,3.25553435004,0
1949,9.30120990662,2.19410569239,0
1950,8.86094383382,2.43154248544,0
1951,8.83029239007,3.49539453982,0
1952,9.26301747398,3.74489637086,0
1953,9.25082362982,4.23392315251,0
1954,9.67982466389,3.99406296274,0
1955,8.3918142001,3.2530162595,0
1956,8.39553824994,3.74237828032,0
1957,8.39210443981,2.75351896942,0
1958,7.95735029968,3.00050270992,0
1959,8.4264799334,2.17902893586,0
1960,8.00136197295,3.99077803983,0
1961,8.43984016291,4.23315632015,0
1962,8.85712152625,4.44951990032,0
1963,9.27392871616,4.6986864922,0
1964,8.46294524925,4.69791965983,0
1965,7.51679974972,2.77291559428,0
1966,7.51650951002,3.27241288436,0
1967,7.05604546329,3.61816163232,0
1968,7.49659601325,3.84574874797,0
1969,7.4966642185,2.16921508198,0
1970,7.05582342884,2.44112525642,0
1971,7.95762301651,2.03357368584,0
1972,7.49664669563,1.70178334798,0
1973,8.42646241052,1.71159720186,0
1974,6.63034857501,2.16871237207,0
1975,6.65048410623,2.77241288436,0
1976,6.21923184076,3.00507351018,0
1977,6.64470669458,3.27748639454,0
1978,6.62479319782,3.85082225814,0
1979,6.18294512317,2.07285720902,0
1980,7.70295847137,1.19726463735,0
1981,5.79103364857,2.75084558504,0
1982,5.78525623692,3.25591909521,0
1983,5.79090261911,2.25425114407,0
1984,5.35692701528,2.5050967291,0
1985,5.74883848988,1.82710835308,0
1986,5.34381911823,3.47169364201,0
1987,5.77201731041,3.72592156716,0
1988,6.1620428458,3.93202143017,0
1989,6.57338161451,4.27269666795,0
1990,4.91575178882,2.27031254463,0
1991,4.91588281828,2.7669069856,0
1992,4.4733690093,3.00366728579,0
1993,4.91454423576,3.23845147026,0
1994,4.90130530925,3.7084539422,0
1995,8.23562279672,1.20251405286,0
1996,4.8842615791,1.8261881231,0
1997,4.4432173821,2.08799837959,0
1998,5.39588561393,1.47928050225,0
1999,4.04915454811,2.7663732446,0
2000,4.04781596559,3.23791772926,0
2001,4.03680577325,2.28521207154,0
2002,3.61125272954,2.51946251501,0
2003,4.00531556353,1.84108765,0
2004,3.61659923504,3.46834085016,0
2005,4.04081369623,3.70563489135,0
2006,4.44110513315,3.91131416282,0
2007,3.18443677439,2.28476882433,0
2008,3.19678554924,2.76592999739,0
2009,2.77306051435,3.00589875207,0
2010,3.19987646951,3.24059244275,0
2011,3.19287420015,3.70830960484,0
2012,3.22813190327,1.84910839717,0
2013,2.81366472297,2.09557587955,0
2014,3.56914610149,1.51517173581,0
2015,2.32602079728,2.7659201939,0
2016,2.32911171755,3.24058263926,0
2017,2.34170683313,2.1885976073,0
2018,1.89775803633,2.4232814945,0
2019,2.33645138002,3.8153937098,0
2020,2.37639134657,4.24416016975,0
2021,2.81609140117,3.90932765739,0
2022,37.8952984448,4.80574103718,0
2023,29.5736870073,4.47424592438,0
2024,22.7089277081,1.08955721208,0
2025,23.1859749352,1.09662986493,0
2026,32.2308286873,4.79693974224,0
2027,31.7297670776,4.82535831073,0
2028,31.4980829728,4.52425010165,0
2029,31.1588637719,4.24911458997,0
2030,3.5666473553,5.04554265593,2
2031,6.5,0.866025403784,2
2032,9.45664888112,0.91357547708,2
2033,12.398051455,0.9521451343,2
2034,15.6176839088,0.951198115923,2
2035,19.3687270304,0.950425793029,2
2036,22.5882818802,0.953010884989,2
2037,25.5,0.866025403784,2
2038,28.5,0.866025403784,2
2039,31.4196257275,0.953529161643,2
2040,34.6391029369,0.950000881181,2
2041,36.5109893015,5.11134760709,2
2042,17.4981413438,5.12657897133,2
2043,7.5,5.13397459622,2
2044,10.5247163935,5.10325334261,2
2045,13.5,5.13397459622,2
2046,20.4821714265,5.20539934043,2
2047,23.4476637483,5.20564926374,2
2048,26.3458802393,5.04918221633,2
2049,29.5587040722,5.04498987362,2
2050,32.5,5.13397459622,2
2051,5.42754618391,5.0459395691,2
2052,4.47751339868,0.68291883122,2
2053,17.4928597864,0.906497787108,2
2054,36.5153850221,0.906594084425,2
2055,15.6176839088,5.04880188408,2
2056,34.6391029369,5.05889001469,2
2057,2.46509339006,0.892038575707,2
2058,39.1386932901,2.50817301761,2
2059,0.940574887771,3.49182698239,2
2060,39.1563036956,4.46132486541,2
2061,0.865323794353,1.51162734131,2
2062,1.49410771355,5.14214761383,2
2063,38.4081743809,0.905697247441,2
2064,39.1384825618,3.49491631384,2
2065,38.269486969,3.00051488857,2
2066,38.2970814962,1.99390387655,2
2067,37.4070354687,2.49906979419,2
2068,37.4030320314,3.49993078046,2
2069,36.5369350387,2.99983342911,2
2070,36.5321043537,4.02520857553,2
2071,35.6698729811,3.5,2
2072,35.6700457567,2.49997223818,2
2073,34.8038763732,2.99999537303,2
2074,37.4019237886,4.5,2
2075,34.8038475773,4,2
2076,33.9378221735,3.5,2
2077,33.9481899439,2.51794842127,2
2078,33.0615586032,3.04764960228,2
2079,33.0484904979,1.86387512053,2
2080,32.2057713659,2.5,2
2081,32.1986609289,3.50754099579,2
2082,31.3385608893,3.00125683263,2
2083,31.3247204115,3.97783599506,2
2084,30.4710187878,3.49651547128,2
2085,30.4737205584,2.5,2
2086,29.6072448595,2.99941924521,2
2087,29.6222606123,2.02526130939,2
2088,28.7586627848,2.52947152763,2
2089,28.7590673809,3.47945702695,2
2090,27.8813761244,3.00148809243,2
2091,27.9256536058,4.14145789479,2
2092,27.0096189432,3.5,2
2093,27.0105742395,2.5002480154,2
2094,26.1437527555,3.0000413359,2
2095,26.0770033609,1.83370055573,2
2096,25.2775681357,2.5,2
2097,25.2775946717,3.50000688932,2
2098,24.4115471545,3.00000114822,2
2099,24.3965669553,2.02594027392,2
2100,23.5430221025,2.50432357036,2
2101,23.5623738127,3.47080546571,2
2102,22.6818854675,2.99585483934,2
2103,22.7543832011,3.90246344274,2
2104,21.8263473239,3.48305304701,2
2105,21.8292618096,2.51943356696,2
2106,20.9522204655,3.00041443566,2
2107,20.9674565564,1.85747388035,2
2108,20.081415713,2.5,2
2109,20.0713653186,3.4812815998,2
2110,19.2137152434,2.99688026663,2
2111,19.2082389415,3.98773246129,2
2112,18.3478938331,3.5064997767,2
2113,18.3488405491,2.50056334055,2
2114,17.4830069302,3.00117718621,2
2115,26.9983680079,1.56547352123,2
2116,21.9499462571,4.45355683713,2
2117,23.519817599,1.52510533416,2
2118,30.4938413358,1.52428122345,2
2119,30.4669807314,4.47540741171,2
2120,17.485505868,4.03144031108,2
2121,16.6176197303,3.50543624955,2
2122,16.6173140978,2.5,2
2123,15.7513396328,3.00090604159,2
2124,16.6071774776,4.50177891229,2
2125,15.751288694,2,2
2126,14.8969253266,2.52033554168,2
2127,14.8988689993,3.48335572913,2
2128,14.0234491774,3.0006152118,2
2129,14.0152547125,1.85776583029,2
2130,13.1532124827,2.5,2
2131,13.1413808559,3.47839386155,2
2132,12.2852151411,2.99639897692,2
2133,12.2723529762,3.97409013266,2
2134,11.4183606684,3.49508151826,2
2135,11.4207558125,2.49927555231,2
2136,10.5546017931,2.99905951176,2
2137,10.5704998356,2.02660443769,2
2138,9.70710266969,2.53115925192,2
2139,9.69202042153,3.50503646061,2
2140,8.82656902312,3.00603261875,2
2141,8.83401687263,3.98475662385,2
2142,7.96932844466,3.48137665105,2
2143,7.95968538398,2.49790154497,2
2144,7.09351694097,2.996546366,2
2145,7.03848830125,1.83008427589,2
2146,6.22500925241,2.5,2
2147,6.21140159013,3.47513865799,2
2148,5.35671590491,2.995856443,2
2149,7.95829767196,1.56464990282,2
2150,5.35678114219,2.00824915024,2
2151,4.47464809458,2.53110815696,2
2152,4.48952872918,3.50449409999,2
2153,3.62330969673,3.00593370949,2
2154,3.59884540387,2.03901723816,2
2155,2.76991120101,2.53224062631,2
2156,2.77609306783,3.4816135876,2
2157,11.4552717422,1.52446060302,2
2158,1.88205254049,3.00094686605,2
2159,1.8967402073,4.15042553289,2
2160,1.91343295031,1.8461513514,2
2161,11.4262922314,4.48394774995,2
2162,37.4439291255,1.49585633061,2
2163,24.443441944,0.962866968981,2
2164,29.5636592487,0.962087631067,2
2165,16.5967870061,1.50246174338,2
2166,10.537807579,0.970667224813,2
2167,31.4165163878,5.03979132504,2
2168,18.3815115441,4.50243942313,2
2169,12.3653857612,5.02990019821,2
2170,35.6266205125,4.51638004162,2
2171,19.3697508443,5.06266565721,2
2172,9.66763121077,4.48308980151,2
2173,0.994520247415,2.49351626671,2
2174,8.88022674988,4.91428326006,2
2175,34.8038475773,2,2
2176,35.6276160515,1.50391104925,2
2177,38.2728630398,3.99278114138,2
2178,38.3712913881,5.07888317402,2
2179,24.4463718023,3.98754936252,2
2180,25.3689067088,4.49792573661,2
2181,27.9392585388,1.84646751562,2
2182,14.0138421476,4.1398506777,2
2183,15.751288694,4,2
2184,20.9834716783,3.91916166037,2
2185,26.1909588864,3.99010262351,2
2186,19.2153903092,2,2
2187,18.3866229702,1.50377586086,2
2188,8.89571074022,1.85639595115,2
2189,7.06162619565,4.13896673045,2
2190,5.35317197448,3.97928572534,2
2191,4.49397121399,4.48476314264,2
2192,3.53937988389,0.992144400544,2
2193,2.46735587956,5.11493716541,2
2194,6.51548254446,5.11841732246,2
2195,5.43497372737,0.950032885958,2
2196,13.5,0.866025403784,2
2197,14.5,0.866025403784,2
2198,20.5,0.866025403784,2
2199,32.5109559283,0.881389584891,2
2200,14.5,5.13397459622,2
2201,33.5231838228,5.14218644146,2
2202,33.0352182756,4.18695228183,2
2203,24.4874413283,5.04692482769,2
2204,27.5,5.13397459622,2
2205,28.4778417227,5.11783485529,2
2206,3.63269834404,3.97897573091,2
2207,31.3397459622,2,2
2208,10.5472704531,4.01157806412,2
2209,21.5,0.866025403784,2
2210,12.2871870789,2,2
2211,33.5,0.866025403784,2
2212,29.6154214374,3.9739400696,2
2213,17.48757189,1.98574598635,2
2214,22.6794919243,2,2
2215,36.5334910772,1.98420615429,2
2216,22.4839283087,5.26456632612,2
2217,0.840876010218,4.48043280891,2
2218,1.5111419519,0.832426172933,2
2219,39.178736498,1.53065671462,2
2220,8.51373224191,0.838703454068,2
2221,26.45310001,0.825605896806,2
2222,27.5378831373,0.830916392738,2
2223,8.05605433293,4.46692589808,2
2224,7.44861627257,0.827620722774,2
2225,34,4.39230484541,2
2226,33.9955999239,1.61931133927,2
2227,26.998548088,4.38551597253,2
2228,20.1474781561,4.39227261787,2
2229,20.0190057816,1.61846728233,2
2230,14.9557724168,4.36986411085,2
2231,14.955931683,1.63393418695,2
2232,13.0585923482,4.35124189327,2
2233,13.0707411458,1.63518727367,2
2234,21.9128984341,1.63918874722,2
2235,32.0950232008,4.36921903879,2
2236,32.1049178963,1.63975877341,2
2237,21.5,5.30057958017,2
2238,6.11384569773,4.35154960107,2
2239,6.14088099393,1.64571441802,2
2240,2.86790697081,4.35429893455,2
2241,2.85733256583,1.66031843842,2
2242,28.8673376438,4.35153594405,2
2243,28.8767682369,1.6458626775,2
2244,25.1877090538,1.65564049528,2
2245,25.5,5.31684135524,2
2246,9.83355394114,1.65968046853,2
2247,35.5,0.6762856099,2
2248,18.4868913883,0.67368615648,2
2249,16.5,5.32874580082,2
2250,16.5,0.671254199182,2
2251,37.4734977057,0.661629532496,2
2252,37.5,5.33012701892,2
2253,11.4632788772,5.32342025815,2
2254,11.4844472538,0.683535707111,2
2255,23.5037566635,0.674951795364,2
2256,30.5,5.33310313032,2
2257,30.4988091583,0.672384878209,2
2258,4.5,5.3333168055,2
2259,23.6491470389,4.32050807569,2
2260,4.41172097831,1.643853331,2
2261,35.5,5.34581102468,2
2262,18.4817349659,5.34944426126,2
2263,9.61451487082,5.30012528084,2
2264,39.2679491924,5.26794919243,2
2265,0.732050807569,0.732050807569,2
2266,0.732050807569,5.26794919243,2
2267,39.2679491924,0.732050807569,2
2268,21.0846167069,4.70938887946,2
2269,8.22331100588,5.31057035957,2
2270,22.8570137108,4.62934878908,2
2271,0.366025403784,0.366025403784,2
2272,0.366025403784,0.866025403784,2
2273,0.866025403784,0.366025403784,2
2274,0.366025403784,5.13397459622,2
2275,0.366025403784,5.63397459622,2
2276,0.866025403784,5.63397459622,2
2277,39.6339745962,0.866025403784,2
2278,39.6339745962,0.366025403784,2
2279,39.1339745962,0.366025403784,2
2280,39.6339745962,5.63397459622,2
2281,39.6339745962,5.13397459622,2
2282,39.1339745962,5.63397459622,2
2283,0.432661897176,1.25581367065,2
2284,0.432661897176,1.75581367065,2
2285,0.798687300961,1.12183907444,2
2286,0.497260123707,2.24675813335,2
2287,0.497260123707,2.74675813335,2
2288,0.929922020884,2.00257180401,2
2289,0.470287443886,3.24591349119,2
2290,0.470287443886,3.74591349119,2
2291,0.967547567593,2.99267162455,2
2292,0.420438005109,4.24021640446,2
2293,0.420438005109,4.74021640446,2
2294,0.890725448994,3.98612989565,2
2295,0.786463408893,4.87419100067,2
2296,39.589368249,1.76532835731,2
2297,39.589368249,1.26532835731,2
2298,39.2233428452,1.13135376109,2
2299,39.5693466451,2.75408650881,2
2300,39.5693466451,2.25408650881,2
2301,39.1587148941,2.01941486612,2
2302,39.5692412809,3.74745815692,2
2303,39.5692412809,3.24745815692,2
2304,39.1385879259,3.00154466572,2
2305,39.5781518478,4.7306624327,2
2306,39.5781518478,4.2306624327,2
2307,39.1473931287,3.97812058962,2
2308,39.212126444,4.86463702892,2
2309,1.75557097595,0.416213086467,2
2310,1.25557097595,0.416213086467,2
2311,1.12159637973,0.782238490251,2
2312,2.73254669503,0.446019287854,2
2313,2.23254669503,0.446019287854,2
2314,1.98811767098,0.86223237432,2
2315,3.76968994195,0.496072200272,2
2316,3.26968994195,0.496072200272,2
2317,3.00223663698,0.942091488125,2
2318,4.73875669934,0.34145941561,2
2319,4.23875669934,0.34145941561,2
2320,4.00844664129,0.837531615882,2
2321,5.71748686369,0.475016442979,2
2322,5.21748686369,0.475016442979,2
2323,4.95624356303,0.816475858589,2
2324,6.75,0.433012701892,2
2325,6.25,0.433012701892,2
2326,5.96748686369,0.908029144871,2
2327,7.72430813629,0.413810361387,2
2328,7.22430813629,0.413810361387,2
2329,6.97430813629,0.846823063279,2
2330,8.75686612095,0.419351727034,2
2331,8.25686612095,0.419351727034,2
2332,7.98117425724,0.833162088421,2
2333,9.72832444056,0.45678773854,2
2334,9.22832444056,0.45678773854,2
2335,8.98519056152,0.876139465574,2
2336,10.7689037895,0.485333612407,2
2337,10.2689037895,0.485333612407,2
2338,9.99722823008,0.942121350947,2
2339,11.7422236269,0.341767853556,2
2340,11.2422236269,0.341767853556,2
2341,11.0111274164,0.827101465962,2
2342,12.6990257275,0.47607256715,2
2343,12.1990257275,0.47607256715,2
2344,11.9412493544,0.817840420705,2
2345,13.75,0.433012701892,2
2346,13.25,0.433012701892,2
2347,12.9490257275,0.909085269042,2
2348,14.75,0.433012701892,2
2349,14.25,0.433012701892,2
2350,14,0.866025403784,2
2351,15.8088419544,0.475599057961,2
2352,15.3088419544,0.475599057961,2
2353,15.0588419544,0.908611759854,2
2354,16.75,0.335627099591,2
2355,16.25,0.335627099591,2
2356,16.0588419544,0.811226157552,2
2357,17.7464298932,0.453248893554,2
2358,17.2464298932,0.453248893554,2
2359,16.9964298932,0.788875993145,2
2360,18.7434456942,0.33684307824,2
2361,18.2434456942,0.33684307824,2
2362,17.9898755874,0.790091971794,2
2363,19.6843635152,0.475212896514,2
2364,19.1843635152,0.475212896514,2
2365,18.9278092094,0.812055974754,2
2366,20.75,0.433012701892,2
2367,20.25,0.433012701892,2
2368,19.9343635152,0.908225598407,2
2369,21.75,0.433012701892,2
2370,21.25,0.433012701892,2
2371,21,0.866025403784,2
2372,22.7941409401,0.476505442494,2
2373,22.2941409401,0.476505442494,2
2374,22.0441409401,0.909518144387,2
2375,23.7518783317,0.337475897682,2
2376,23.2518783317,0.337475897682,2
2377,23.0460192718,0.813981340177,2
2378,24.721720972,0.481433484491,2
2379,24.221720972,0.481433484491,2
2380,23.9735993038,0.818909382173,2
2381,25.75,0.433012701892,2
2382,25.25,0.433012701892,2
2383,24.971720972,0.914446186383,2
2384,26.726550005,0.412802948403,2
2385,26.226550005,0.412802948403,2
2386,25.976550005,0.845815650295,2
2387,27.7689415687,0.415458196369,2
2388,27.2689415687,0.415458196369,2
2389,26.9954915737,0.828261144772,2
2390,28.75,0.433012701892,2
2391,28.25,0.433012701892,2
2392,28.0189415687,0.848470898261,2
2393,29.7818296243,0.481043815533,2
2394,29.2818296243,0.481043815533,2
2395,29.0318296243,0.914056517426,2
2396,30.7494045791,0.336192439104,2
2397,30.2494045791,0.336192439104,2
2398,30.0312342035,0.817236254638,2
2399,31.7098128638,0.476764580822,2
2400,31.2098128638,0.476764580822,2
2401,30.9592174429,0.812957019926,2
2402,32.7554779641,0.440694792445,2
2403,32.2554779641,0.440694792445,2
2404,31.9652908279,0.917459373267,2
2405,33.75,0.433012701892,2
2406,33.25,0.433012701892,2
2407,33.0054779641,0.873707494338,2
2408,34.8195514685,0.475000440591,2
2409,34.3195514685,0.475000440591,2
2410,34.0695514685,0.908013142483,2
2411,35.75,0.33814280495,2
2412,35.25,0.33814280495,2
2413,35.0695514685,0.813143245541,2
2414,36.757692511,0.453297042213,2
2415,36.257692511,0.453297042213,2
2416,36.007692511,0.791439847163,2
2417,37.7367488528,0.330814766248,2
2418,37.2367488528,0.330814766248,2
2419,36.9944413639,0.784111808461,2
2420,38.7040871905,0.45284862372,2
2421,38.2040871905,0.45284862372,2
2422,37.9408360433,0.783663389968,2
2423,38.8380617867,0.818874027505,2
2424,1.24705385678,5.57107380691,2
2425,1.74705385678,5.57107380691,2
2426,1.11307926056,5.20504840313,2
2427,2.23367793978,5.5574685827,2
2428,2.73367793978,5.5574685827,2
2429,1.98073179656,5.12854238962,2
2430,3.28332367765,5.52277132797,2
2431,3.78332367765,5.52277132797,2
2432,3.01700161743,5.08023991067,2
2433,4.25,5.66665840275,2
2434,4.75,5.66665840275,2
2435,4.03332367765,5.18942973072,2
2436,5.21377309196,5.52296978455,2
2437,5.71377309196,5.52296978455,2
2438,4.96377309196,5.1896281873,2
2439,6.25774127223,5.55920866123,2
2440,6.75774127223,5.55920866123,2
2441,5.97151436419,5.08217844578,2
2442,7.25,5.56698729811,2
2443,7.75,5.56698729811,2
2444,7.00774127223,5.12619595934,2
2445,8.11165550294,5.65528517978,2
2446,8.61165550294,5.65528517978,2
2447,7.86165550294,5.22227247789,2
2448,9.30725743541,5.65006264042,2
2449,9.80725743541,5.65006264042,2
2450,9.24737081035,5.10720427045,2
2451,8.94011337494,5.45714163003,2
2452,8.55176887788,5.11242680982,2
2453,10.2623581967,5.5516266713,2
2454,10.7623581967,5.5516266713,2
2455,10.0696156321,5.20168931172,2
2456,11.2316394386,5.66171012908,2
2457,11.7316394386,5.66171012908,2
2458,10.9939976353,5.21333680038,2
2459,12.1826928806,5.51495009911,2
2460,12.6826928806,5.51495009911,2
2461,11.9143323192,5.17666022818,2
2462,13.25,5.56698729811,2
2463,13.75,5.56698729811,2
2464,12.9326928806,5.08193739722,2
2465,14.25,5.56698729811,2
2466,14.75,5.56698729811,2
2467,14,5.13397459622,2
2468,15.3088419544,5.52440094204,2
2469,15.8088419544,5.52440094204,2
2470,15.0588419544,5.09138824015,2
2471,16.25,5.66437290041,2
2472,16.75,5.66437290041,2
2473,16.0588419544,5.18877384245,2
2474,17.2490706719,5.56328948566,2
2475,17.7490706719,5.56328948566,2
2476,16.9990706719,5.22766238607,2
2477,18.240867483,5.67472213063,2
2478,18.740867483,5.67472213063,2
2479,17.9899381549,5.2380116163,2
2480,19.1848754221,5.53133282861,2
2481,19.6848754221,5.53133282861,2
2482,18.9257429051,5.20605495924,2
2483,20.2410857133,5.60269967021,2
2484,20.7410857133,5.60269967021,2
2485,19.9259611354,5.13403249882,2
2486,21.25,5.65028979008,2
2487,21.75,5.65028979008,2
2488,20.9910857133,5.2529894603,2
2489,22.2419641543,5.63228316306,2
2490,22.7419641543,5.63228316306,2
2491,21.9919641543,5.28257295314,2
2492,23.2238318742,5.60282463187,2
2493,23.7238318742,5.60282463187,2
2494,22.9657960285,5.23510779493,2
2495,24.2437206642,5.52346241384,2
2496,24.7437206642,5.52346241384,2
2497,23.9675525383,5.12628704571,2
2498,25.25,5.65842067762,2
2499,25.75,5.65842067762,2
2500,24.9937206642,5.18188309146,2
2501,26.1729401197,5.52459110817,2
2502,26.6729401197,5.52459110817,2
2503,25.9229401197,5.18301178579,2
2504,27.25,5.56698729811,2
2505,27.75,5.56698729811,2
2506,26.9229401197,5.09157840628,2
2507,28.2389208613,5.55891742764,2
2508,28.7389208613,5.55891742764,2
2509,27.9889208613,5.12590472575,2
2510,29.2793520361,5.52249493681,2
2511,29.7793520361,5.52249493681,2
2512,29.0182728974,5.08141236446,2
2513,30.25,5.66655156516,2
2514,30.75,5.66655156516,2
2515,30.0293520361,5.18904650197,2
2516,31.2082581939,5.51989566252,2
2517,31.7082581939,5.51989566252,2
2518,30.9582581939,5.18644722768,2
2519,32.25,5.56698729811,2
2520,32.75,5.56698729811,2
2521,31.9582581939,5.08688296063,2
2522,33.2615919114,5.57109322073,2
2523,33.7615919114,5.57109322073,2
2524,33.0115919114,5.13808051884,2
2525,34.3195514685,5.52944500734,2
2526,34.8195514685,5.52944500734,2
2527,34.0811433799,5.10053822807,2
2528,35.25,5.67290551234,2
2529,35.75,5.67290551234,2
2530,35.0695514685,5.20235051968,2
2531,36.2554946507,5.55567380355,2
2532,36.7554946507,5.55567380355,2
2533,36.0054946507,5.22857931589,2
2534,37.25,5.66506350946,2
2535,37.75,5.66506350946,2
2536,37.0054946507,5.22073731301,2
2537,38.185645694,5.53944158701,2
2538,38.685645694,5.53944158701,2
2539,37.935645694,5.20450509647,2
2540,38.8196202902,5.17341618323,2
2541,3.59967284967,4.51225919342,2
2542,4.06333477901,4.23186943678,2
2543,4.03030928464,4.76515289929,2
2544,4.49698560699,4.90903997407,2
2545,2.66763142518,4.73461804998,2
2546,3.21727716305,4.69992079524,2
2547,3.25030265742,4.16663733273,2
2548,7.24355228691,1.32885249933,2
2549,6.76924415063,1.34805483984,2
2550,6.58968464759,1.73789934696,2
2551,6.32044049697,1.2558699109,2
2552,5.78792736065,1.29787365199,2
2553,10.1856807601,1.31517384667,2
2554,9.64510141113,1.28662797281,2
2555,8.70472149106,1.34754970261,2
2556,9.17617981067,1.38498571411,2
2557,9.36463234068,1.75803820984,2
2558,12.3426192669,1.47607256715,2
2559,11.8712294106,1.76223030151,2
2560,11.9266615986,1.23830286866,2
2561,11.469859498,1.10399815507,2
2562,13.2853705729,1.25060633873,2
2563,12.7343963004,1.29366620399,2
2564,12.6789641124,1.81759363684,2
2565,16.1072354575,1.22682992965,2
2566,16.1740378501,1.75123087169,2
2567,15.6844863014,1.47559905796,2
2568,15.3536101885,1.81696709348,2
2569,15.2868077959,1.29256615144,2
2570,16.5483935031,1.08685797128,2
2571,14.7279658415,1.24997979537,2
2572,18.8010066397,1.75188793043,2
2573,18.8776750003,1.22710082695,2
2574,19.2920586698,1.47521289651,2
2575,19.693866406,1.28444653768,2
2576,19.6171980454,1.80923364117,2
2577,18.4367571793,1.08873100867,2
2578,20.2595028908,1.24224634306,2
2579,23.0996547617,1.76255266708,2
2580,22.6338869022,1.47650544249,2
2581,23.0540497396,1.23905810958,2
2582,23.5117871313,1.10002856476,2
2583,22.2505901571,1.2960998161,2
2584,21.7064492171,1.2526070755,2
2585,22.2961951792,1.81959437361,2
2586,26.2650516855,1.32965322627,2
2587,25.7885016805,1.34986297976,2
2588,25.6323562074,1.74467052551,2
2589,25.3438545269,1.26083294953,2
2590,24.8155754989,1.30925373213,2
2591,29.2202137428,1.30397515428,2
2592,28.6883841185,1.25594404064,2
2593,27.738570838,1.33869195418,2
2594,28.2196292694,1.3562464597,2
2595,28.4080133879,1.74616509656,2
2596,31.3796858448,1.47676458082,2
2597,30.916793649,1.76214061173,2
2598,30.9567335317,1.23890519255,2
2599,30.496325247,1.09833305083,2
2600,32.3079369123,1.26057417915,2
2601,31.7622718119,1.29664396753,2
2602,31.7223319293,1.81987938671,2
2603,35.1333594942,1.22695596521,2
2604,35.2157318144,1.75195552462,2
2605,34.7214752571,1.47500044059,2
2606,34.3997237506,1.80965566963,2
2607,34.3173514304,1.28465611022,2
2608,35.5638080257,1.09009832957,2
2609,33.747799962,1.24266837153,2
2610,36.9670140712,4.26260428776,2
2611,36.9564565451,4.80567380355,2
2612,36.5215468276,4.56827809131,2
2613,36.068804907,4.81386382436,2
2614,36.0793624331,4.27079430857,2
2615,37.4509618943,4.91506350946,2
2616,35.5633102563,4.93109553315,2
2617,17.0526594107,4.81417894181,2
2618,17.0463416728,4.26660961169,2
2619,17.4918236059,4.57900964121,2
2620,17.933508706,4.2669398671,2
2621,17.9398264439,4.81450919723,2
2622,16.5535887388,4.91526235656,2
2623,18.431623255,4.92594184219,2
2624,6.78855437006,4.62869202646,2
2625,7.28081309783,4.63647066333,2
2626,7.55884026429,4.30294631427,2
2627,7.77802716646,4.80045024715,2
2628,8.1396826694,4.88874812882,2
2629,10.5359934233,4.55741570336,2
2630,10.9867813422,4.24776290703,2
2631,10.9755043124,4.79360054628,2
2632,11.4447855543,4.90368400405,2
2633,10.1074508319,4.24733393281,2
2634,10.0961738021,4.79317157206,2
2635,9.6410730408,4.89160754117,2
2636,12.7119890547,4.69057104574,2
2637,13.2792961741,4.74260824474,2
2638,14.2569210738,4.63691263696,2
2639,13.7569210738,4.63691263696,2
2640,13.5362172479,4.24554628549,2
2641,19.7586145002,4.72746913754,2
2642,20.3148247913,4.79883597915,2
2643,20.6160474315,4.55083074866,2
2644,20.7833940667,4.95739410994,2
2645,21.2923083534,5.00498422981,2
2646,23.5484053936,4.76307866971,2
2647,24.0682941836,4.68371645169,2
2648,22.6704710098,4.9469575576,2
2649,23.1523387296,4.91749902641,2
2650,23.2530803749,4.47492843239,2
2651,25.7799327976,4.24401418006,2
2652,26.2684195629,4.51964241992,2
2653,25.857393474,4.77355397647,2
2654,25.4344533544,4.90738354592,2
2655,26.5947534872,4.18780929802,2
2656,26.6722141637,4.71734909443,2
2657,27.249274044,4.75974528437,2
2658,29.5870627548,4.50946497161,2
2659,30.0412010844,4.22467374066,2
2660,30.0128424018,4.76019864267,2
2661,30.4834903657,4.90425527101,2
2662,28.6725896832,4.73468539967,2
2663,29.213020858,4.69826290884,2
2664,29.2413795406,4.16273800683,2
2665,31.7557697943,4.70450518191,2
2666,32.2975116004,4.7515968175,2
2667,32.7676091378,4.66046343902,2
2668,33.2792010492,4.66456936164,2
2669,32.5651207382,4.27808566031,2
2670,4.96075869895,4.76535135587,2
2671,4.92357159424,4.23202443399,2
2672,5.3903590792,4.51261264722,2
2673,5.73350883611,4.16541766321,2
2674,5.77069594082,4.69874458508,2
2675,6.3146641211,4.73498346176,2
2676,4.4446171885,1.16338608111,2
2677,3.9755504311,1.31799886577,2
2678,4.92334735284,1.29694310848,2
2679,17.4902158382,1.44612188673,2
2680,17.042179448,1.74410386487,2
2681,17.0448233963,1.20447976525,2
2682,17.9370974301,1.74476092361,2
2683,17.9397413783,1.20513682399,2
2684,36.9887101013,1.74003124245,2
2685,36.5244380496,1.44540011936,2
2686,36.9796570738,1.20122520752,2
2687,37.4587134156,1.07874293155,2
2688,36.0805535643,1.74405860177,2
2689,36.0715005368,1.20525256684,2
2690,15.6844863014,4.52440094204,2
2691,16.1792330858,4.25088945615,2
2692,16.1124306932,4.77529039819,2
2693,15.2867281628,4.70933299746,2
2694,15.3535305554,4.18493205543,2
2695,14.7278862084,4.75191935353,2
2696,35.2152340449,4.25819002081,2
2697,35.1328617247,4.78763502815,2
2698,34.7214752571,4.52944500734,2
2699,34.3195514685,4.72559743005,2
2700,34.4019237886,4.19615242271,2
2701,33.7615919114,4.76724564344,2
2702,1.7122874511,1.33928876217,2
2703,2.18926317019,1.36909496356,2
2704,2.66121297794,1.27617850707,2
2705,2.38538275807,1.75323489491,2
2706,3.19835622486,1.32623141948,2
2707,38.7039847654,3.24771560121,2
2708,38.7040901296,2.75434395309,2
2709,38.2832842326,2.49720938256,2
2710,38.7178873932,2.25103844708,2
2711,38.7379089971,1.76228029558,2
2712,1.8893963739,3.57568619947,2
2713,1.41865754754,3.82112625764,2
2714,1.41131371413,3.24638692422,2
2715,1.43828639395,2.74723156638,2
2716,1.36880810876,4.3154291709,2
2717,38.7145833677,4.22705300339,2
2718,38.7056728008,3.74384872761,2
2719,38.7637975418,4.77010401971,2
2720,38.3220772139,4.5358321577,2
2721,1.45397659886,2.16983380906,2
2722,1.38937837233,1.67888934636,2
2723,1.18823287312,1.17202675712,2
2724,2.18204804343,4.63268134915,2
2725,1.69542396043,4.64628657336,2
2726,1.16749186189,4.81129021137,2
2727,37.8705053108,1.74488010358,2
2728,37.9260517532,1.20077678903,2
2729,38.3526279386,1.449800562,2
2730,38.7934554395,1.21817698103,2
2731,38.2711750044,3.49664801498,2
2732,37.8382612189,2.74979234138,2
2733,37.8520584824,2.24648683537,2
2734,37.8362595002,3.25022283452,2
2735,37.4050337501,2.99950028732,2
2736,37.8379475356,3.74635596092,2
2737,37.4254822971,1.9974630624,2
2738,36.969983535,3.24988210478,2
2739,36.9719852537,2.74945161165,2
2740,36.5352130579,2.4920197917,2
2741,36.9702632729,2.24163797424,2
2742,36.9675681926,3.76256967799,2
2743,36.5345196962,3.51252100232,2
2744,37.40247791,3.99996539023,2
2745,37.8373934142,4.24639057069,2
2746,36.1009886674,3.76260428776,2
2747,36.1034040099,3.24991671455,2
2748,35.6699593689,2.99998611909,2
2749,36.1034903977,2.74990283365,2
2750,36.1017684169,2.24208919624,2
2751,35.6482467468,4.00819002081,2
2752,35.2368746772,3.24999768651,2
2753,35.236961065,2.74998380561,2
2754,35.2368602792,3.75,2
2755,34.8038619753,3.49999768651,2
2756,34.8038619753,2.49999768651,2
2757,35.236946667,2.24998611909,2
2758,35.6488309041,2.00194164372,2
2759,34.3708348754,3.75,2
2760,34.3708492734,3.24999768651,2
2761,33.9430060587,3.00897421063,2
2762,34.3760331586,2.75897189715,2
2763,34.3760187606,2.25897421063,2
2764,37.8866075884,4.78944158701,2
2765,33.9689110868,3.94615242271,2
2766,33.4996903883,3.27382480114,2
2767,33.5048742735,2.78279901178,2
2768,33.4865202245,3.84347614091,2
2769,33.0483884394,3.61730094206,2
2770,33.5176091378,4.28962856362,2
2771,33.0550245505,2.45576236141,2
2772,33.4983402209,2.1909117709,2
2773,33.5220452109,1.7415932299,2
2774,33.9718949339,2.06862988027,2
2775,32.6336649846,2.77382480114,2
2776,32.6271309319,2.18193756027,2
2777,32.630109766,3.27759529904,2
2778,32.2022161474,3.0037704979,2
2779,32.6169396022,3.84724663881,2
2780,32.1553446311,2.06987938671,2
2781,32.5767041971,1.75181694697,2
2782,33.2742452489,1.36495026216,2
2783,32.7797232131,1.37263235271,2
2784,31.7686109091,3.25439891421,2
2785,31.7721661276,2.75062841632,2
2786,31.3391534257,2.50062841632,2
2787,31.772758664,2.25,2
2788,31.7616906702,3.74268849543,2
2789,31.3316406504,3.48954641385,2
2790,32.1468420648,3.93838001729,2
2791,31.7098718061,4.17352751693,2
2792,30.8978695997,3.73717573317,2
2793,30.9047898386,3.24888615196,2
2794,30.4723696731,2.99825773564,2
2795,30.9061407238,2.75062841632,2
2796,30.9067332603,2.25,2
2797,30.8958505714,4.22662170339,2
2798,30.4689997596,3.9859614415,2
2799,31.3706183997,4.50881366005,2
2800,30.9417485596,4.75759936838,2
2801,30.0391318236,3.24796735825,2
2802,30.0404827089,2.74970962261,2
2803,30.0432201126,3.73522777044,2
2804,29.6113331484,3.48667965741,2
2805,29.6147527359,2.5123402773,2
2806,30.0479905854,2.2626306547,2
2807,30.0580509741,1.77477126642,2
2808,30.4837809471,2.01214061173,2
2809,29.1829538222,2.76444538642,2
2810,29.1904616986,2.27736641851,2
2811,29.1831561202,3.23943813608,2
2812,28.7588650829,3.00446427729,2
2813,29.1872444091,3.72669854828,2
2814,28.8177155109,2.08766710256,2
2815,29.2495144246,1.83556199345,2
2816,29.5929599305,1.49367447023,2
2817,30.0287502922,1.24318442726,2
2818,28.3202217526,3.24047255969,2
2819,28.3200194546,2.76547981003,2
2820,27.9103173316,2.42397780402,2
2821,28.3489606618,2.18796952162,2
2822,28.3423604934,3.81045746087,2
2823,27.9035148651,3.57147299361,2
2824,28.8132025123,3.9154964855,2
2825,28.3964956248,4.24649691942,2
2826,27.4676362745,3.8207289474,2
2827,27.4454975338,3.25074404621,2
2828,27.0100965913,3.0001240077,2
2829,27.4459751819,2.75086805392,2
2830,27.4749163891,2.17335776551,2
2831,27.4621008469,4.26348693366,2
2832,27.0040835156,3.94275798626,2
2833,28.2017476643,4.62964637504,2
2834,27.7128268029,4.6377162455,2
2835,26.5766858494,3.25002066795,2
2836,26.5771634975,2.75014467565,2
2837,26.6002889148,3.74505131175,2
2838,26.1673558209,3.4950719797,2
2839,26.1103780582,2.41687094582,2
2840,26.5437888002,2.16697428557,2
2841,26.5376856844,1.69958703848,2
2842,27.0044711237,2.03286076832,2
2843,27.4688132733,1.70597051842,2
2844,25.7106604456,2.75002066795,2
2845,25.6772857483,2.16685027787,2
2846,25.7106737136,3.25002411261,2
2847,25.2775814037,3.00000344466,2
2848,25.734276779,3.74505475641,2
2849,25.2326385947,2.07782024764,2
2850,26.725734009,1.19553970902,2
2851,24.8445709131,3.25000401877,2
2852,24.8445576451,2.75000057411,2
2853,24.4040570549,2.51297071107,2
2854,24.8370675455,2.26297013696,2
2855,24.7921380046,1.8407903846,2
2856,24.861983237,3.74377812592,2
2857,24.4289594784,3.49377525537,2
2858,25.3232506902,3.99896631296,2
2859,24.9076392555,4.24273754957,2
2860,23.9772846285,2.75216235929,2
2861,23.9697945289,2.26513192214,2
2862,23.9869604836,3.23540330696,2
2863,23.5526979576,2.98756451803,2
2864,24.0043728075,3.72917741412,2
2865,23.5314198507,2.01471445226,2
2866,23.9581922772,1.77552280404,2
2867,23.9816297715,1.24398615157,2
2868,24.4200044497,1.49440362145,2
2869,23.1221296401,3.23333015253,2
2870,23.112453785,2.75008920485,2
2871,22.6806886959,2.49792741967,2
2872,23.1112570134,2.25216178518,2
2873,23.1583785069,3.68663445422,2
2874,22.7181343343,3.44915914104,2
2875,23.6057604258,3.8956567707,2
2876,23.20176512,4.11148575921,2
2877,24.0477594206,4.15402871911,2
2878,22.2903652625,3.69275824488,2
2879,22.2541163957,3.23945394318,2
2880,21.8278045667,3.00124330699,2
2881,22.2555736386,2.75764420315,2
2882,22.254376867,2.25971678348,2
2883,22.3521647291,4.17801013993,2
2884,21.8881467905,3.96830494207,2
2885,22.805698456,4.26590611591,2
2886,22.403479984,4.5414528131,2
2887,21.3892838947,3.24173374134,2
2888,21.3907411376,2.75992400131,2
2889,21.4049095011,3.70110735369,2
2890,20.9678460719,3.45978804802,2
2891,21.4667089677,4.18635924875,2
2892,20.9598385109,2.42894415801,2
2893,21.398359183,2.18845372366,2
2894,21.4401774953,1.74833131378,2
2895,21.8710801219,2.07931115709,2
2896,20.5168180892,2.75020721783,2
2897,20.5244361347,2.17873694018,2
2898,20.511792892,3.24084801773,2
2899,20.0763905158,2.9906407999,2
2900,20.5274184985,3.70022163009,2
2901,20.0502107473,2.05923364117,2
2902,20.493231169,1.73797058134,2
2903,21.2337282782,1.36174964207,2
2904,20.7337282782,1.36174964207,2
2905,19.642540281,3.23908093322,2
2906,19.6475654782,2.74844013332,2
2907,19.2145527763,2.49844013332,2
2908,19.6484030111,2.25,2
2909,19.63980213,3.73450703055,2
2910,19.2109770925,3.49230636396,2
2911,20.1094217374,3.93677710884,2
2912,19.6778585488,4.19000253958,2
2913,20.5654749172,4.15571713912,2
2914,18.7780663873,3.74711611899,2
2915,18.7808045383,3.25169002166,2
2916,18.3483671911,3.00353155863,2
2917,18.7812778963,2.74872180359,2
2918,18.7821154291,2.25028167028,2
2919,18.7948752428,4.24508594221,2
2920,18.3647026886,4.00446959991,2
2921,19.2889948929,4.52519905925,2
2922,18.8756311942,4.78255254017,2
2923,17.9154503817,3.25383848145,2
2924,17.9159237396,2.75087026338,2
2925,17.9166998506,3.76897004389,2
2926,17.4842563991,3.51630874864,2
2927,17.4852894101,2.49346158628,2
2928,17.9182062195,2.24315466345,2
2929,18.3677317596,2.00216960071,2
2930,17.0515627992,3.76843828031,2
2931,17.0503133302,3.25330671788,2
2932,16.6174669141,3.00271812477,2
2933,17.050160514,2.7505885931,2
2934,17.0524429939,2.24287299318,2
2935,27.2681255726,1.19819495698,2
2936,21.517281482,4.58147285829,2
2937,21.0340441926,4.31427526991,2
2938,21.7249731286,4.87706820865,2
2939,22.2169372829,4.85906158162,2
2940,16.6123986039,4.00360758092,2
2941,16.1844796816,3.25317114557,2
2942,16.1843268653,2.75045302079,2
2943,16.1844542122,3.75271812477,2
2944,15.7513141634,3.50045302079,2
2945,15.7513141634,2.50045302079,2
2946,16.1843013959,2.25,2
2947,16.607050552,2.00123087169,2
2948,15.3241324797,2.76062079164,2
2949,15.3241070103,2.26016777084,2
2950,15.3251043161,3.24213088536,2
2951,14.897897163,3.0018456354,2
2952,15.3250788467,3.74167786456,2
2953,14.9264285048,2.07713486432,2
2954,14.4611590884,3.24198547046,2
2955,14.460187252,2.76047537674,2
2956,14.0193519449,2.42919052105,2
2957,14.4560900195,2.18905068599,2
2958,14.4855931977,1.74585000862,2
2959,14.4563555735,3.81160320342,2
2960,14.0186456625,3.57023294475,2
2961,14.927320708,3.92660991999,2
2962,14.4848072822,4.25485739428,2
2963,13.58833083,2.7503076059,2
2964,13.5842335976,2.17888291514,2
2965,13.5824150166,3.23950453668,2
2966,13.1472966693,2.98919693077,2
2967,13.5776115017,3.80912226963,2
2968,13.1119768142,2.06759363684,2
2969,13.5429979291,1.74647655198,2
2970,14.2576273562,1.36189561704,2
2971,13.7576273562,1.36189561704,2
2972,12.7132979985,3.23739641924,2
2973,12.7192138119,2.74819948846,2
2974,12.28620111,2.49819948846,2
2975,12.7201997808,2.25,2
2976,12.706866916,3.72624199711,2
2977,12.2787840586,3.48524455479,2
2978,13.099986602,3.91481787741,2
2979,12.6654726622,4.16266601297,2
2980,11.8453568223,3.73458582546,2
2981,11.8517879047,3.24574024759,2
2982,11.4195582404,2.99717853529,2
2983,11.8529854768,2.74783726462,2
2984,11.8539714457,2.24963777615,2
2985,11.8493226038,4.22901894131,2
2986,11.4223264499,3.98951463411,2
2987,12.3188693687,4.50199516544,2
2988,11.8958389963,4.75692397408,2
2989,10.9864812307,3.24707051501,2
2990,10.9876788028,2.74916753204,2
2991,10.9828155607,3.75332979119,2
2992,10.5509361231,3.50531878794,2
2993,10.5625508144,2.51283197473,2
2994,10.9956278241,2.262939995,2
2995,11.0128857889,1.77553252036,2
2996,11.4380137774,2.01186807767,2
2997,10.1308522314,2.76510938184,2
2998,10.1388012527,2.27888184481,2
2999,10.1233111073,3.25204798619,2
3000,9.69956154561,3.01809785627,2
3001,10.1196454373,3.75830726237,2
3002,9.77032830542,2.09541986023,2
3003,10.2020268884,1.84314245311,2
3004,10.5541537073,1.49863583125,2
3005,10.9965396606,1.24756391392,2
3006,9.25929472232,3.25553453968,2
3007,9.2668358464,2.76859593534,2
3008,8.86113988167,2.43121428495,2
3009,9.30140670495,2.19377760153,2
3010,9.26301864708,3.74489654223,2
3011,8.83029294787,3.4953946213,2
3012,9.67982581615,3.99406313106,2
3013,9.2508240417,4.23392321268,2
3014,8.40167265865,3.73306663745,2
3015,8.39794873389,3.2437046349,2
3016,7.96450691432,2.98963909801,2
3017,8.39312720355,2.75196708186,2
3018,8.4276980621,2.17714874806,2
3019,8.44503560278,4.22584126096,2
3020,8.0126913888,3.97415127457,2
3021,9.27392898033,4.69868653079,2
3022,8.85712181126,4.44951994195,2
3023,8.4681405414,4.69060457907,2
3024,7.53142269282,3.23896150853,2
3025,7.52660116248,2.74722395548,2
3026,7.51547732016,3.81017169075,2
3027,7.07757156831,3.56775654823,2
3028,7.06600262111,2.41331532095,2
3029,7.49908684262,2.16399291043,2
3030,7.49839298661,1.69736708936,2
3031,7.95899152797,2.03127572389,2
3032,8.42700420609,1.71052292698,2
3033,6.65926309669,2.748273183,2
3034,6.63174877683,2.16504213795,2
3035,6.65245926555,3.235842512,2
3036,6.21820542127,2.987569329,2
3037,6.63651389289,3.80705269422,2
3038,6.18294512317,2.07285720901,2
3039,7.70345697227,1.1961353128,2
3040,5.78405874752,3.2354975505,2
3041,5.79086257866,2.7479282215,2
3042,5.35674852355,2.50205279662,2
3043,5.7908951973,2.25412457512,2
3044,5.74883106806,1.82698178413,2
3045,5.7822867823,3.72721219167,2
3046,5.3549439397,3.48757108417,2
3047,6.58773594669,4.24525816576,2
3048,6.16262364393,3.91334412953,2
3049,4.91568199974,2.76348229998,2
3050,4.91571461838,2.2696786536,2
3051,4.92312231704,3.25017527149,2
3052,4.48208841188,3.01780112848,2
3053,4.92135035183,3.74188991267,2
3054,8.23601495694,1.20167667844,2
3055,4.44318453644,2.08748074398,2
3056,4.88425106025,1.82605124062,2
3057,5.39587743478,1.4791410181,2
3058,4.05641921295,3.25521390474,2
3059,4.04897889566,2.76852093322,2
3060,3.6110775503,2.52247547382,2
3061,4.03674674922,2.28506269756,2
3062,4.00528319109,1.84143528458,2
3063,4.06111353661,3.74173491545,2
3064,3.62800402039,3.4924547202,2
3065,4.49174997158,3.99462862132,2
3066,3.19661044887,2.7690871679,2
3067,3.18437830244,2.28562893223,2
3068,3.19970138228,3.24377364854,2
3069,2.77300213442,3.00692710695,2
3070,3.20439570593,3.73029465925,2
3071,2.81362188342,2.09627953236,2
3072,3.22808898485,1.84966783829,2
3073,3.56911264388,1.51558081935,2
3074,2.32907280416,3.24128022682,2
3075,2.32598187075,2.76659374618,2
3076,1.8977427454,2.42354910873,2
3077,2.34167207566,2.18919598885,2
3078,2.33641663757,3.81601956024,2
3079,2.82200001932,3.91795626107,2
3080,2.38232358905,4.25236223372,2
3081,24.9281740186,4.77242528215,2
3082,24.4669065653,4.51723709511,2
3083,30.768369148,2.99600276729,1.00192602959
3084,11.7091130551,2.99787498172,0.99999755477
3085,38.8440756452,3.00148176984,1.00029340369
3086,4.17949030582,3.00252134504,1.00008313838
3087,23.2460736944,3.00355617355,1.00038497756
3088,10.0077018307,4.91544231686,0.999999982195
3089,9.38336611805,3.9601440242,1.00000023169
3090,37.1132486541,3,0.999701019423
3091,18.6348980412,3.00380122111,1.00183371335
3092,35.9695842005,3.02294471283,0.993626452585
3093,24.988902361,3.00001110499,1.00002503562
3094,16.330295189,3.00280541923,1.00690368799
3095,29.317493317,2.5215081417,1.00104327184
3096,10.0016379064,2.99915290894,1.00000257038
3097,5.64894192125,2.50501967919,0.998609501529
3098,16.9093344294,2.01078859654,1.00260407368
3099,18.0306136439,2.05811537918,1.01880641295
3100,37.6962429438,3.99645022437,0.999854401738
3101,38.8065108304,4.1177195515,0.99650981279
3102,3.39336588924,1.52529006446,1.0000344796
3103,5.98047284345,4.90607734177,1.00086092712
3104,4.84702927732,4.90655299125,1.00893838901
3105,12.8088209942,2.09650355571,1.00001717356
3106,31.9173228078,3.00175994332,1.00743143539
3107,15.4999037916,1.49911265663,1.00009127154
3108,12.7988622073,3.88459197704,1.00082574238
3109,29.3752750139,4.42800847294,0.995200165623
3110,11.1357532379,4.93019495844,0.994590781693
3111,19.7731328716,3.00786202978,1.00875119721
3112,20.3920953953,2.03459324456,0.990876840801
3113,10.3706405147,1.50431656169,0.99996841488
3114,30.8045983374,1.10013074134,1.03167546493
3115,35.399932322,2.03732378579,0.995534640933
3116,34.2661385093,2.03514842697,0.980386843906
3117,26.4449221075,4.49382376267,1.00001196609
3118,25.570632948,2.02429047774,0.996046050721
3119,26.5119529076,1.4027998188,0.995374710215
3120,30.7955525704,4.89224160983,1.03289103787
3121,21.5414046138,2.04798697767,0.992047228416
3122,22.1227986596,3.00885512255,1.025495833
3123,21.5586148266,3.99817664219,1.02017564703
3124,8.51753040289,1.41805084914,0.999696412796
3125,23.196925566,1.1059768683,1.03408024277
3126,17.9762850137,3.90642173445,1.00400511456
3127,16.8768799936,3.95819114669,1.03052996092
3128,32.5067490784,3.98810331617,0.99718688878
3129,33.6464081815,3.96862515699,1.0026532706
3130,20.6011280268,4.59492041216,0.986514510641
3131,23.7758672656,2.04064695175,1.03068047674
3132,28.1458300784,2.4417326632,1.00205317918
3133,28.4624755991,1.37565557438,1.0039387408
3134,23.1703905869,4.89899768782,0.967749092058
3135,15.2458930297,3.95342161354,0.988420267707
3136,11.8532050513,1.11729903792,0.99999988124
3137,38.7985208704,1.87763720592,0.999928707743
3138,37.6724042366,2.01316342691,1.01000905943
3139,9.41613827821,2.06165979543,0.95830746025
3140,35.3802953352,3.98946021357,0.980863483846
3141,35.9882421265,4.95554573871,0.99718000586
3142,28.1779549902,3.6034821868,1.00119027878
3143,3.10029072825,3.88867771728,1.00229189821
3144,24.2504833961,4.52562731867,1.01010128655
3145,22.078534889,1.06607607701,1.00987374466
3146,30.2783458384,2.03883610184,1.04736564921
3147,32.511063843,2.02817536741,1.0077432489
3148,31.9241090628,1.0742070206,1.0072738747
3149,6.80485059883,2.49362654046,1
3150,6.59662248807,1.38307729786,1
3151,31.9086211229,4.9277870743,1.00695119171
3152,37.0627817675,1.05140683927,1.01207004015
3153,5.1694719926,3.50767711183,1.01045800541
3154,20.9777332174,1.10112659958,0.965138588134
3155,6.76323065672,3.64475508282,1.00322795485
3156,7.47968427904,4.54957730311,1.00351847288
3157,22.066910771,4.98218854493,1.01356854902
3158,19.8730381297,1.05733588781,1.0204255717
3159,29.8135039638,3.46040625022,0.934589239101
3160,14.6020166216,3.00244281389,1.00016161343
3161,13.4806819768,2.99430922284,1.01859222097
3162,5.14455987917,1.46071696279,0.999929108285
3163,35.9337440446,1.04242090091,1.00441379047
3164,16.0591715225,4.73845542628,1.00661942518
3165,19.6295964552,4.09201682149,0.97984016435
3166,11.2971849654,2.02050440564,1.05977663934
3167,1.96570477789,4.75601876712,1
3168,34.3624515852,3.1319824061,0.999789507506
3169,33.0295523695,4.98119894749,0.990674151704
3170,10.9854637147,3.83438454868,0.999997126471
3171,25.4723152135,3.98532654123,1.03445924197
3172,33.3913329115,1.33901331075,0.992768083961
3173,27.5782294277,4.56796395535,1.00636444062
3174,1.9645611471,1.23905100795,0.999995642164
3175,2.18347148332,2.38668539955,1.00005571696
3176,1.12831217634,1.99326050788,1.00000589677
3177,4.15953148953,4.07829496472,1.05969449635
3178,1.99628746489,3.62026403143,1.00005337686
3179,18.7830784046,1.22967312974,1.00723767747
3180,37.1086452942,4.95038743985,0.986802869893
3181,38.1274599631,1.05054629818,0.97051272727
3182,14.9991893256,5.02305378362,0.986057391642
3183,13.889220266,4.71877595995,0.999542192769
3184,13.709665615,1.38681394497,1
3185,14.5720501234,1.96473710262,1.08954670219
3186,34.11741868,4.94883981883,0.920341330195
3187,0.958101400498,0.961695110972,0.993026038849
3188,0.960807916959,5.03919208304,0.992672598884
3189,27.2103646936,3.04891804349,0.999999999999
3190,3.04559037922,4.99294642386,1.02598955473
3191,8.31577129836,3.88062497549,1.0666699641
3192,7.55019651687,1.77907807641,1.0732029747
3193,25.0113857975,1.03852072706,0.992023272084
3194,33.3868209397,2.66410530976,1.04106017414
3195,18.0430486526,5.00361375719,1.05207891193
3196,3.13822693144,2.83479867792,0.94230316436
3197,8.41453437745,2.51229908817,0.999553842476
3198,24.118514104,3.52125150951,0.852197915735
3199,19.3716810936,2.06360518974,0.993212997533
3200,16.4585689055,1.05552174966,0.983959306485
3201,34.8647380082,1.10919025671,0.964343071916
3202,19.1027222841,5.01565962586,0.962947033678
3203,8.47577752319,4.93310256177,0.987729434621
3204,12.8335260039,4.96895872029,0.988896533503
3205,1.052913978,3.07850988343,0.999999999999
3206,31.2810385891,1.98481655607,0.996390390619
3207,31.1377672483,3.93922137793,1.00517124016
3208,22.5588346106,1.96642634667,0.987006432892
3209,25.1886776912,4.99678721686,1.04902219245
3210,17.7544346288,1.05150140265,0.999769270532
3211,20.626040283,3.57384510756,1.10044715466
3212,39.058025316,5.08747211244,1.03634727269
3213,22.5575728367,4.10557449289,1.03578700459
3214,36.8233698656,2.49210307715,1.49985050971
3215,36.8211143999,2.51703191592,0.499850509711
3216,36.5312356114,2.00913499307,1
3217,36.2515376388,2.50357543356,1.49681322629
3218,36.2492821731,2.52850427234,0.496813226292
3219,36.5414164273,3.01147235642,0.996663736004
3220,28.8899844581,1.94858185804,1.00249100632
3221,29.0236411722,1.70530967356,0.501969370399
3222,29.4511500311,2.27823595721,0.500521635921
3223,29.7979195777,2.28017212177,1.02420446053
3224,29.9315762918,2.03689993728,0.523682824607
3225,29.3704107187,1.70724583811,1.02565219501
3226,35.9667116996,2.01076497004,1.49776732047
3227,35.9644562338,2.03569380882,0.497767320467
3228,35.6847582613,2.53013424931,0.994580546759
3229,37.1006921911,2.02361362938,0.505004529713
3230,37.1029476569,1.9986847906,1.50500452971
3231,37.3928264453,2.50658171346,1.00485503942
3232,29.5530513334,0.985585436556,1
3233,29.0024595086,1.19236940821,0.501969370399
3234,29.0130674239,1.16887160272,1.5019693704
3235,29.9210025435,1.50046186645,1.52368282461
3236,29.9103946282,1.52395967194,0.523682824607
3237,36.2336175609,1.5133135276,1.50220689523
3238,36.2313620951,1.53824236638,0.502206895233
3239,35.6668381833,1.53987234335,0.9999742157
3240,11.704053107,4.45214254555,1.49729539085
3241,11.9673077226,4.40739346774,0.997708262039
3242,12.5356075917,3.92934105485,1.50041287119
3243,11.6289083454,3.90423734067,1.49999856324
3244,11.892162961,3.85948826286,1.00041143443
3245,11.0606084763,4.38228975356,0.997293954082
3246,30.184128793,1.0311091862,1.51583773246
3247,30.1735208778,1.05460699169,0.515837732463
3248,30.5414720879,1.56948342159,1.03952055707
3249,36.7958809566,1.54273533556,0.506035020075
3250,36.7981364223,1.51780649678,1.50603502007
3251,37.367593002,1.53228513309,1.01103954979
3252,36.498262906,1.04691387009,1.00824191531
3253,15.2000267287,2.01105456136,0.500045635768
3254,15.9150994903,2.25095903793,1.00349747976
3255,15.6152224274,2.76290094266,0.503451843996
3256,14.7510831437,2.76271963999,0.500080806714
3257,15.4661559053,3.00262411656,1.00353265071
3258,15.0509602066,2.25077773526,1.00012644248
3259,39.6339745962,0.69400511638,0.636605388315
3260,39.3059948836,0.366025403784,0.636605388315
3261,39.6720202874,0.327979712595,1.27321077663
3262,39.0637299815,0.853252861684,1.12186175195
3263,38.7357502689,0.525273149089,1.12186175195
3264,38.6977045777,0.891298552873,0.485256363635
3265,11.7039848685,4.45213257685,0.497295390846
3266,12.5355393532,3.92933108614,0.500412871192
3267,11.6288401069,3.90422737196,0.499998563235
3268,3.93543964396,1.10410444784,0.5000172398
3269,3.94668294462,0.762645032229,1.00697581747
3270,4.48875669934,0.34145941561,0.506958577674
3271,4.81103663893,1.071817897,0.499964554142
3272,4.82227993958,0.730358481394,1.00692313182
3273,4.2689628842,1.49300351362,0.999981793943
3274,18.0589524857,3.00248920366,1.50091685668
3275,18.3327558426,2.53095830014,1.01032006315
3276,17.756810287,2.5296462827,1.50940320647
3277,17.7296459719,3.45379946033,1.50200255728
3278,18.0034493288,2.98226855682,1.01140576375
3279,18.3055915274,3.45511147778,1.00291941395
3280,16.4680257581,4.34832328648,1.01857469305
3281,16.7786564332,4.9325171988,1.50330971259
3282,17.1875106687,4.54238505901,1.51526498046
3283,17.4599643231,4.48090245194,1.04130443643
3284,17.7705949982,5.06509636426,1.52603945597
3285,17.0511100876,4.87103459174,1.02934916856
3286,4.48875669934,0.34145941561,1.50695857767
3287,3.93543964396,1.10410444784,1.5000172398
3288,4.81103663893,1.071817897,1.49996455414
3289,39.3992604352,1.26679831556,1.13656974219
3290,39.0332350314,1.30484400674,0.499964353871
3291,38.4629904168,1.46409175205,0.985220717506
3292,17.491683571,2.99732582105,1
3293,16.9066510596,3.00199130272,1.503451844
3294,16.9153277004,2.99813993756,0.503451843996
3295,17.2048473207,2.50213152622,0.501302036839
3296,16.6198148092,2.50679700789,1.00475388083
3297,17.1961706798,2.50598289138,1.50130203684
3298,12.8161941056,4.42677534866,0.994861137944
3299,12.55293949,4.47152442648,1.49444826675
3300,11.9846396209,4.94957683937,0.991743657598
3301,17.1886201027,3.47583280129,0.515264980461
3302,17.1799434619,3.47968416645,1.51526498046
3303,16.6035875913,3.48049828296,1.01871682446
3304,16.0408174109,3.00185573041,1.503451844
3305,15.6136102578,2.76157048046,1.503451844
3306,15.1766781272,3.00167442774,1.50008080671
3307,14.7494709741,2.76138917779,1.50008080671
3308,26.3153745296,4.24217097435,0.500005983047
3309,25.9586186605,4.23957515195,1.01723560403
3310,25.8290710826,3.98792236363,0.517229620984
3311,26.6980958227,3.51971811476,0.5
3312,26.3413399535,3.51712229236,1.01722962098
3313,26.8276434006,3.77137090308,1.00000598305
3314,27.5189415687,0.848470898261,1
3315,27.0059764538,1.13441261129,0.497687355108
3316,27.0249180224,1.11685810577,1.49768735511
3317,28.0001793682,1.10328598356,1.5019693704
3318,27.4872142533,1.38922769659,0.999656725506
3319,27.9812377996,1.12084048908,0.501969370399
3320,7.36627955069,3.56306586694,1.50161397742
3321,7.53950097754,3.76269002916,1.03494895947
3322,8.14254987151,3.68100081327,1.53333498205
3323,8.19193141106,2.99683786961,1.49977692124
3324,8.36515283791,3.19646203183,1.03311190329
3325,7.58888251708,3.0785270855,1.00139089866
3326,12.5528712515,4.47151445777,0.494448266751
3327,17.7383226128,3.44994809517,0.502002557278
3328,17.4265825036,3.93230644057,1.01726753774
3329,17.7654869279,2.52579491754,0.509403206474
3330,17.4699740367,2.03445198786,1.01070524331
3331,25.8316370499,3.98771458237,1.51722962098
3332,26.317940497,4.24196319309,1.50000598305
3333,26.70066179,3.5195103335,1.5
3334,26.7586446358,1.50044241631,0.497687355108
3335,27.7339059815,1.4868702941,0.501969370399
3336,16.7765330746,4.8571394615,0.503309712592
3337,17.1853873101,4.46700732171,0.515264980461
3338,17.7684716396,4.98971862696,0.526039455967
3339,39.3059948836,0.366025403784,1.63660538832
3340,39.6339745962,0.69400511638,1.63660538832
3341,38.6977045777,0.891298552873,1.48525636363
3342,8.13641567917,3.69031248775,0.533334982052
3343,7.36014535835,3.57237754142,0.501613977423
3344,8.18579721871,3.00614954409,0.499776921238
3345,29.0423681057,1.70045844189,1.5019693704
3346,29.4698769647,2.27338472555,1.50052163592
3347,29.9503032254,2.03204870562,1.52368282461
3348,17.4989261427,5.56328948566,1.49349084275
3349,16.779441232,5.36922771314,0.99680055534
3350,17.771379797,5.5018068786,1.01953029871
3351,39.0332350314,1.30484400674,1.49996435387
3352,16.0407919415,2.50140270962,0.503451843996
3353,15.6255962428,1.74955632832,0.500045635768
3354,26.7551604577,1.48413667001,1.49768735511
3355,27.7304218035,1.47056454781,1.5019693704
3356,0.900841963588,4.75981244598,1.49633629944
3357,1.47854769092,4.32972805724,0.996362987874
3358,1.41858173755,4.05034842017,1.50002668843
3359,0.946894994109,3.77947134617,1.5
3360,1.52460072144,3.34938695743,1.00002668843
3361,1.00686094748,4.05885098324,0.996336299442
3362,18.0676291265,2.9986378385,0.500916856676
3363,0.900842436297,4.75980397188,0.496336299442
3364,1.41858221026,4.05033994608,0.500026688432
3365,0.946895466818,3.77946287208,0.5
3366,26.7658548635,1.95395456097,0.497687355108
3367,27.5827934489,2.47342098317,0.501026589591
3368,27.5755832212,2.01990883851,0.501026589591
3369,27.328891493,1.922266241,0.998713944699
3370,16.0407919415,2.50140270961,1.503451844
3371,6.78404062777,3.06919081164,1.00161397742
3372,6.92837379885,3.32065072441,1.50161397742
3373,6.9491837699,2.74508645323,1.5
3374,7.60969248814,2.50296281432,0.999776921238
3375,7.75402565921,2.75442272709,1.49977692124
3376,36.8226765039,3.51260428776,1.49985050971
3377,36.8245735195,3.5,0.499850509711
3378,36.5340013693,4.01260428776,1
3379,37.1141736488,4.01082939995,1.49992720087
3380,37.1160706643,3.99822511219,0.499927200869
3381,37.4047457989,3.49822511219,0.99977771058
3382,36.2527412927,3.51147235642,0.496813226292
3383,36.2508442771,3.52407664418,1.49681322629
3384,17.4968027841,5.48791174837,0.493490842748
3385,26.0412929278,1.71354514827,0.995710380468
3386,26.2951948837,2.26469989044,0.49802302536
3387,26.3904988208,2.53660426062,0.99802302536
3388,27.1150607565,2.77701367332,0.5
3389,26.8611588006,2.22585893115,0.997687355107
3390,35.9561998445,4.00733439455,1.49043174192
3391,35.6749397678,3.5062024632,0.987244968215
3392,35.95809686,3.99473010679,0.490431741923
3393,36.820374824,4.48779800769,1.49340143495
3394,36.8222718395,4.47519371992,0.493401434947
3395,37.402444119,4.47341883211,0.993328635816
3396,9.45664888112,0.913575477082,1
3397,9.91364469789,1.20894601939,1.49998420744
3398,9.91364469789,1.20894601939,0.49998420744
3399,9.43639357966,1.48761763626,0.479153730125
3400,9.89338939643,1.78298817856,0.979137937565
3401,9.43639357966,1.48761763626,1.47915373013
3402,8.98708964201,1.16581316311,0.499848206398
3403,8.98708964201,1.16581316311,1.4998482064
3404,8.96683434055,1.73985532229,0.979001936523
3405,28.9244237266,4.78862051421,0.497600082811
3406,28.9265583683,4.77292166411,1.49760008281
3407,28.475707081,5.13353370539,1
3408,28.0259009335,4.85859825542,0.503182220312
3409,28.0280355752,4.84289940532,1.50318222031
3410,28.4767522208,4.49798621415,1.00078230312
3411,36.2620702557,4.47777286935,0.49859000293
3412,36.2601732401,4.49037715712,1.49859000293
3413,35.6842687308,4.47250297614,0.989021744853
3414,11.2810227346,4.7070713542,1.49729539085
3415,11.205877973,4.15916614931,1.49999856324
3416,26.7612635735,1.9515239171,1.49768735511
3417,26.2906035937,2.26226924657,1.49802302536
3418,27.1104694665,2.77458302945,1.5
3419,6.91959480839,3.34479042577,0.501613977423
3420,6.94040477944,2.76922615459,0.5
3421,7.74524666876,2.77856242845,0.499776921238
3422,27.678097386,2.74532535335,1.00102658959
3423,37.7413805531,5.02189768045,0.493401434947
3424,38.0351793779,4.54492907271,0.499927200869
3425,38.716070564,5.09044001675,0.518173636347
3426,38.3771341299,4.5419611684,1.01810083722
3427,38.0833353051,5.01892977614,1.01157507129
3428,27.5720990432,2.00360309222,1.50102658959
3429,27.5782021589,2.4709903393,1.50102658959
3430,36.5484437104,4.95296658928,0.991991437877
3431,25.8087991995,3.49308946721,0.517229620984
3432,25.8080339845,3.49268393857,1.51722962098
3433,26.1445179705,3.00044686455,1
3434,26.6778239396,3.02488521834,0.5
3435,26.6770587246,3.0244796897,1.5
3436,12.1299091176,4.72645323512,1.49444826675
3437,3.78642809753,2.26390570475,1.00005880899
3438,3.90254653081,1.58458201126,0.5000172398
3439,4.2956087391,2.32319765155,0.500041569188
3440,4.66202509249,2.23161915391,1.00000612333
3441,4.77814352577,1.55229546042,0.499964554142
3442,3.90254343378,1.58457169773,1.5000172398
3443,4.29560564207,2.32318733802,1.50004156919
3444,4.77814042874,1.55228514689,1.49996455414
3445,37.7399683412,5.01463530693,1.49340143495
3446,38.0337671659,4.53766669919,1.49992720087
3447,38.7146583521,5.08317764323,1.51817363635
3448,11.2810078413,4.70706917849,0.497295390846
3449,11.2058630797,4.15916397361,0.499998563235
3450,29.097130777,2.0836854096,1.50052163592
3451,28.669621918,1.51075912594,1.5019693704
3452,12.1298942243,4.72645105941,0.494448266751
3453,16.0430082824,2.99785348216,0.503451843996
3454,15.1788689988,2.9976721795,0.500080806714
3455,25.8571928517,2.51216590682,1.49802302536
3456,25.8579580667,2.51257143547,0.49802302536
3457,16.4991328245,5.66437290041,1.48236276405
3458,16.9982034964,5.56328948566,1.48236276405
3459,16.2787185857,5.36922771314,0.985672476637
3460,16.2795857613,5.03360061355,1.50330971259
3461,25.5670927733,3.00043174909,0.500012517812
3462,25.5663275583,3.00002622045,1.50001251781
3463,25.2306087873,3.49266882311,1.0172421388
3464,29.5319790353,0.481043815533,1.48129446032
3465,29.5213711201,0.504541621023,0.481294460318
3466,30.1524485797,0.550065370671,0.997132192781
3467,39.6720202874,0.296509220764,0.933876542163
3468,39.7034907792,0.296509220764,0.594542307695
3469,39.3374653755,0.366025403784,0.297271153848
3470,39.6339745962,0.662534624548,0.297271153848
3471,38.7672207608,0.525273149089,0.782527517483
3472,14.7360998946,2.24386678436,0.544773351096
3473,14.5870333725,2.48358995825,1.04485415781
3474,15.0359769575,1.73192487962,1.04481898686
3475,27.4998967648,0.433012701892,0.485670404119
3476,27.5188383335,0.415458196369,1.48567040412
3477,27.0058732186,0.7013999094,0.983357759227
3478,25.2797676545,2.51215079137,0.998035543173
3479,27.9811345644,0.687827787191,0.987639774518
3480,6.04555205298,4.62998659087,0.500430463562
3481,5.57497241803,4.2068772268,1.00565946627
3482,5.64005162755,3.9307864759,0.505229002707
3483,6.43693095961,3.9993254614,0.501613977423
3484,5.96635132466,3.57621609733,1.00684298013
3485,6.37185175009,4.2754162123,1.00204444098
3486,12.1256282532,1.03472208611,0.49999994062
3487,12.1766025257,0.558649518962,1.02141764818
3488,12.4490257275,0.476072567152,0.521417707558
3489,13.053858535,1.16947953963,0.5
3490,13.1048328075,0.693406972483,1.02141770756
3491,12.7814353332,1.25205649144,0.99999994062
3492,14.0413492992,2.99837601836,1.0093769172
3493,13.7472620622,3.56707995027,1.50929611048
3494,14.3079293846,3.5711467458,1.50008080671
3495,14.2456184438,3.86060938692,0.999851903099
3496,13.9515312068,4.42931331883,1.49977109638
3497,13.6849511214,3.85654259139,1.00906720687
3498,29.0808397507,2.09279726481,0.500521635921
3499,28.6533308918,1.51987098115,0.501969370399
3500,12.4490257275,0.47607256715,1.52141770756
3501,12.1256282532,1.03472208611,1.49999994062
3502,13.053858535,1.16947953963,1.5
3503,14.4993805889,0.433012701892,0.522490559041
3504,14.9993324847,0.749556328314,1.02253619481
3505,14.9999518958,1.18256903021,0.500045635768
3506,14.5360250617,1.4153812532,0.544773351096
3507,14.5354056506,0.982368551309,1.06726391014
3508,28.5128072662,3.98157783368,0.500595139391
3509,28.776615002,4.01574532987,0.998195222203
3510,29.1114672781,4.39384097675,0.497600082811
3511,28.212944485,4.46381871796,0.503182220312
3512,27.8780922089,4.08572307108,1.0037773597
3513,9.47832444056,0.45678773854,1.48892158288
3514,9.47832444056,0.456787738542,0.48892158288
3515,9.93532025733,0.752158280845,0.988905790319
3516,13.7344410445,3.57551032367,0.509296110485
3517,14.2951083669,3.5795771192,0.500080806714
3518,13.9387101891,4.43774369223,0.499771096385
3519,35.3136725317,5.0072178767,1.49859000293
3520,35.009699136,4.52417511413,1.49043174192
3521,34.3782608085,5.00386491676,1.4601706651
3522,34.7488570076,4.4691500162,0.95060240702
3523,35.0528304033,4.95219277877,0.958760668027
3524,9.00876520145,0.709025424569,0.988769789278
3525,28.4859190441,5.57461627774,0.517637235955
3526,28.4880536858,5.55891742764,1.51763723595
3527,28.9367703314,5.21400423647,1.01523731877
3528,14.9999518958,1.18256903021,1.50004563577
3529,14.4993805889,0.433012701892,1.52249055904
3530,14.5360250617,1.4153812532,1.5447733511
3531,12.3310130228,1.60690129682,1.0000085274
3532,12.6034362246,1.52432434501,1.50000858678
3533,13.2592433046,1.74165875034,1.00000858678
3534,12.6034362246,1.52432434501,0.500008586782
3535,5.64165884516,3.92961335645,1.50522900271
3536,6.04715927059,4.62881347142,1.50043046356
3537,6.43853817722,3.99815234195,1.50161397742
3538,14.1048328075,1.12641967437,0.5
3539,14.1042133964,0.693406972483,1.02249055904
3540,14.1408578692,1.67577552379,1.0447733511
3541,28.0382475383,5.28398197768,1.02081945627
3542,16.9960801378,5.48791174837,0.482362764045
3543,28.522646317,3.97750906542,1.50059513939
3544,29.1213063288,4.38977220849,1.49760008281
3545,28.2227835357,4.4597499497,1.50318222031
3546,4.91421611353,2.75377051212,0.999346319953
3547,5.06179500791,2.51806391808,1.49930475076
3548,4.3270692002,2.766814751,1.50004156919
3549,4.80960398687,1.99591255987,1.49996455414
3550,5.39675090021,1.98286832099,0.999269304907
3551,5.06182475653,2.51857124016,0.499304750764
3552,4.32709894882,2.76732207308,0.500041569188
3553,4.80963373549,1.99641988196,0.499964554142
3554,14.1048328075,1.12641967437,1.5
3555,1.98099612139,4.18814139928,1.00002668843
3556,1.40329039405,4.61822578802,1.5
3557,1.46325634743,4.89760542508,0.996336299442
3558,1.40329086676,4.61821731392,0.5
3559,38.2513768871,4.05708488794,0.998182107264
3560,38.5903133212,4.60556373628,0.498254906395
3561,38.9322680732,4.60259583197,1.01642854274
3562,0.480403958479,4.76959604152,0.929349001334
3563,0.420438005109,4.49021640446,1.43301270189
3564,0.526456989,3.78925494171,0.933012701892
3565,28.9813872106,0.687827787191,0.983263830717
3566,16.7420287356,4.22998502949,1.51526498046
3567,16.3331745001,4.62011716929,1.50330971259
3568,0.420438477818,4.49020793036,0.433012701892
3569,16.8262553456,4.14516147679,0.515264980461
3570,16.41740111,4.53529361659,0.503309712592
3571,14.9239548257,3.47793221372,0.994290940568
3572,14.6298675886,4.04663614562,1.49421013385
3573,14.5675566478,4.33609878675,0.993981230238
3574,24.996619176,2.04088110922,0.49802302536
3575,24.6732501068,2.03246871475,1.01336326373
3576,24.0992363349,2.04905934623,0.515340238368
3577,24.7169956008,1.54799623388,0.496011636042
3578,24.3936265316,1.53958383941,1.01135187441
3579,25.2910093728,1.5314056024,0.994034661402
3580,14.6170465709,4.05506651902,0.494210133853
3581,35.0695514685,5.52944500734,1.48892158288
3582,35.7441210632,5.47777286935,0.987511585809
3583,34.80870934,5.47441990941,0.949092247977
3584,38.5889011092,4.59830136276,1.49825490639
3585,12.2539876312,3.44123347938,1.00041164858
3586,11.9907330156,3.48598255719,1.49999877739
3587,11.3472883849,3.4161297652,0.999997340621
3588,16.459408102,5.55236272555,0.482362764045
3589,16.2398610388,4.92159043869,0.503309712592
3590,39.6339745962,1.11602540378,0.448841268503
3591,39.3992604352,1.68881860296,0.948805622374
3592,11.9906647771,3.48597258848,0.499998777385
3593,37.8043226471,5.47519371992,1.06038873305
3594,38.437057906,5.54670396053,0.566987298108
3595,38.779012658,5.54373605622,1.08516093446
3596,24.7057538826,2.52874142285,0.500012517812
3597,24.3823848133,2.52032902837,1.01535275618
3598,24.0862171105,2.03329361284,1.51534023837
3599,24.9835999517,2.02511537583,1.49802302536
3600,24.7039763764,1.53223050049,1.49601163604
3601,12.9397669707,1.86587463916,0.500008586782
3602,13.3901892811,1.51102983379,0.5
3603,12.93978107,1.86584541469,1.50000858678
3604,13.3902033804,1.51100060932,1.5
3605,4.01968994195,0.496072200272,1.50695857767
3606,3.46637288657,1.2587172325,1.5000172398
3607,3.98875669934,0.34145941561,0.48892158288
3608,3.44668294462,0.762645032229,0.98893882268
3609,23.4863964158,1.57331191003,1.03238035975
3610,24.1096546048,1.50175696037,1.51534023837
3611,23.820183755,1.03442191864,1.51704012138
3612,24.1041556818,1.07224879768,1.01305175743
3613,24.7274138708,1.00069384802,1.49601163604
3614,1.46843117633,3.55604550691,0.500026688432
3615,0.996744432887,3.28516843291,0.5
3616,1.46843117633,3.55604550691,1.50002668843
3617,0.996744432886,3.28516843291,1.5
3618,11.997105608,2.99712843472,0.499998777385
3619,12.2589670247,2.54718926872,1.00000736417
3620,12.5469595775,2.54644272171,0.500008586782
3621,12.8828900688,2.99534555528,0.509296110485
3622,13.1447514855,2.54540638927,1.00930469727
3623,12.594897516,2.99609210228,1.00929488787
3624,35.3425097572,4.99330923573,0.49859000293
3625,35.0385363615,4.51026647316,0.490431741923
3626,34.407098034,4.98995627579,0.460170665097
3627,12.5419801841,3.44048693238,0.500412871192
3628,13.1397720921,3.43945059994,1.00970898168
3629,38.435645694,5.53944158701,1.56698729811
3630,25.8307841138,1.94117188901,0.49802302536
3631,26.3014440936,1.63042655954,0.497687355108
3632,24.6927346582,2.51297568946,1.50001251781
3633,24.1199621203,1.52512227782,0.515340238368
3634,23.8304912705,1.05778723609,0.517040121384
3635,24.7377213862,1.02405916547,0.496011636042
3636,11.1318527756,2.99846656766,0.499998777385
3637,10.8553754808,2.99851394533,1.00000006258
3638,10.2781152012,2.99910553127,0.50000128519
3639,10.9258887307,2.50978127962,0.529888319671
3640,10.6494114359,2.50982865729,1.02988960486
3641,11.5031490102,2.50918969368,1.02988709706
3642,3.51969412415,0.49602106483,0.48892158288
3643,3.46637706877,1.25866609706,0.5000172398
3644,12.5470180677,2.54645126632,1.50000858678
3645,11.9971640981,2.99713697932,1.49999877739
3646,12.882948559,2.99535409988,1.50929611048
3647,12.5420386742,3.44049547698,1.50041287119
3648,11.7505694995,4.98004757833,1.49729539085
3649,12.5994558825,4.99942945925,1.49444826675
3650,5.69146321085,3.50891206609,0.505229002707
3651,6.48834254291,3.57745105159,0.501613977423
3652,28.1914541425,1.62388836009,0.501969370399
3653,38.5567813071,3.00099832921,1.50014670184
3654,37.9786621496,3.00074088492,0.999997211555
3655,37.6913678115,3.00025744429,1.49985050971
3656,37.9828649564,3.49848255647,1.49992720087
3657,38.2701592945,3.4989659971,1.00007390271
3658,37.9709456028,2.50683915774,1.50500452971
3659,38.2582399409,2.50732259838,1.00515123156
3660,10.2781198498,2.99910621035,1.50000128519
3661,11.1318574241,2.99846724674,1.49999877739
3662,10.9258933792,2.5097819587,1.52988831967
3663,10.5189033112,0.485333542527,0.522763674107
3664,10.4542235685,1.23749182337,0.49998420744
3665,10.4353202573,0.752158280845,1.02274788155
3666,11.1766025257,0.558649518962,1.02276361473
3667,11.111922783,1.31080779981,0.99998414806
3668,11.1955058368,1.04398306149,0.49999994062
3669,21.2483490065,2.52652158389,0.496023614208
3670,21.8321016367,2.52842105011,1.00877153071
3671,21.5390460294,3.00695565633,0.512747916502
3672,20.7906668411,3.28945064883,0.550223577329
3673,21.3744194713,3.29135011505,1.06297149383
3674,21.0837224484,2.81091604262,1.04624719154
3675,4.50328038342,4.49242397799,1.03431644268
3676,3.86308942241,4.56191881033,1.52984724817
3677,4.20683831631,4.97604782359,1.50446919451
3678,3.94630982827,4.94974970755,1.01746397187
3679,3.30611886726,5.0192445399,1.51299477736
3680,3.60256093437,4.53562069429,1.04284202554
3681,38.3137299815,0.525273149089,0.934097632138
3682,28.200867069,1.611061545,1.5019693704
3683,4.17351463866,5.45327649562,0.993390777386
3684,3.53332367765,5.52277132797,1.48892158288
3685,3.27279518961,5.49647321193,1.00191636024
3686,11.7641230399,4.98410405608,0.497295390846
3687,12.6130094229,5.003485937,0.494448266751
3688,35.0920714562,3.99473010679,1.49043174192
3689,34.5133517583,3.97904268528,0.991758377224
3690,34.2251278794,3.98431257849,1.5013266353
3691,34.4606331287,4.47441990941,1.4601706651
3692,33.8819134307,4.45873248791,0.961497300399
3693,3.8555614616,4.53464127048,0.529847248174
3694,4.19931035549,4.94877028375,0.504469194506
3695,3.29859090645,4.99196700005,0.512994777365
3696,35.0983886939,5.51553636637,0.48892158288
3697,8.00876520145,0.709025424569,1.00216773229
3698,7.982920926,1.123219086,0.499848206398
3699,7.47415572455,0.414193661433,0.502319525891
3700,7.52509825843,0.889539038206,1.03892101324
3701,7.49925398298,1.30373269964,0.536601487351
3702,8.03386345988,1.59856446278,1.03644969375
3703,20.6736943973,2.51982471734,0.495438420401
3704,20.9667500046,2.04129011112,0.991462034609
3705,20.5090678392,2.80421917606,1.04566199773
3706,10.4542240468,1.23749189325,1.49998420744
3707,10.5189037895,0.485333612407,1.52276367411
3708,11.1955063152,1.04398313137,1.49999994062
3709,15.4986163312,3.47716382757,1.49421013385
3710,15.7880941093,3.47811351639,0.997661977849
3711,34.2307504805,3.97633296032,0.501326635301
3712,35.0976940573,3.98675048861,0.490431741923
3713,34.4662557298,4.46644029124,0.460170665097
3714,24.4711015609,0.481433484491,1.47750944096
3715,23.8478433719,0.552988434149,0.994549562343
3716,24.7550734877,0.519260363529,0.973521077001
3717,3.52579571683,5.49549378812,0.48892158288
3718,7.98307333773,1.12283578596,1.4998482064
3719,7.47430813629,0.413810361387,1.50231952589
3720,7.49940639472,1.30334939959,1.53660148735
3721,10.9922236269,0.341767853556,1.52276367411
3722,11.6688261525,0.900417372517,1.49999994062
3723,25.8238181545,1.92899551674,1.49802302536
3724,26.2944781343,1.61825018727,1.49768735511
3725,13,0.433012701892,0.521417707558
3726,13.6048328075,1.12641967437,0.5
3727,23.6444523455,4.21012459866,0.909973503897
3728,23.8838305715,3.9208797926,1.42609895787
3729,23.4097688129,4.60975288175,1.48387454603
3730,22.8639817118,4.50228609036,1.00176804832
3731,23.1033599378,4.21304128429,1.51789350229
3732,23.3380434704,3.8134130012,0.943992460161
3733,5.69043679136,3.49140788491,1.50522900271
3734,6.48731612342,3.55994687041,1.50161397742
3735,3.88919713025,2.52041134349,0.500041569188
3736,3.49613492196,1.78179570321,0.5000172398
3737,3.88916785484,2.5207692916,1.50004156919
3738,3.49610564656,1.78215365131,1.5000172398
3739,9.41410312333,3.00259271397,0.50000128519
3740,9.69250201224,3.47964846657,1.00000140104
3741,9.10496722914,3.4830882716,0.500000115847
3742,8.62055135884,2.75916580359,0.499776921238
3743,8.89895024775,3.23622155619,0.999777037085
3744,9.20808614194,2.75572599856,0.999778206428
3745,24.4814090764,0.504798801941,0.477509440959
3746,9.41410346477,3.00259276385,1.50000128519
3747,9.10496757058,3.48308832148,1.50000011585
3748,8.62055170028,2.75916585346,1.49977692124
3749,29.5292488009,5.52249493681,1.48567040412
3750,29.466989543,4.73649917328,1.49760008281
3751,29.4375342718,5.21400423647,0.983270486931
3752,30.14767305,5.44612080491,1.00211592305
3753,30.0854137922,4.66012504138,1.01404560174
3754,30.1771283213,4.96861574173,1.51644551893
3755,3.98516486894,5.62998287171,0.48892158288
3756,4.6586795076,5.08325936734,0.504469194506
3757,35.5,5.67290551234,1.48892158288
3758,35.7441210632,5.15067838169,1.49859000293
3759,23.8404439584,3.49602848761,1.42609895787
3760,23.6822938992,3.26240384153,0.926291446648
3761,23.4042237536,3.23718081963,1.50019248878
3762,23.0599733247,3.7881899793,1.51789350229
3763,22.9018232655,3.55456533322,1.01808599107
3764,21.5375095626,3.0046347791,1.5127479165
3765,21.2468125396,2.52420070667,1.49602361421
3766,20.7891303743,3.28712977161,1.55022357733
3767,16.3303115617,2.00539429827,0.501302036839
3768,16.2046191105,1.75495062659,1.00134767261
3769,16.3303115617,2.00539429827,1.50130203684
3770,15.6255962428,1.74955632831,1.50004563577
3771,26.7272705254,3.99691188134,1.50000598305
3772,27.1099918184,3.27445902175,1.5
3773,13,0.433012701892,1.52141770756
3774,13.6048328075,1.12641967437,1.5
3775,13.4063521775,4.01222132737,1.50041287119
3776,13.3440412367,4.30168396849,1.00018396758
3777,0.420438005109,3.99388744753,1.52097980101
3778,0.526456989,3.29292598479,1.02097980101
3779,20.6721579304,2.51750384011,1.4954384204
3780,20.0705747395,4.86119227321,0.49325725532
3781,20.0505640134,5.29746020608,1.00729702917
3782,19.5200107261,5.56373206713,0.51403977385
3783,19.3213718681,5.07156188006,0.481473516839
3784,19.3013611421,5.50782981293,0.995513290689
3785,19.8519251555,4.80529001901,0.974730772159
3786,13.3935311597,4.02065170077,0.500412871192
3787,29.4629680138,4.71612036239,0.497600082811
3788,29.5252272717,5.50211612592,0.485670404119
3789,30.1731067921,4.94823693083,0.516445518934
3790,38.8839745962,0.366025403784,0.448841268503
3791,4.48516486894,5.62998287171,0.506958577674
3792,4.67351463866,5.45327649562,1.01142777218
3793,3.51968994195,0.496072200272,1.48892158288
3794,23.7104369915,4.71231250324,0.988925189301
3795,23.9498152175,4.42306769718,1.50505064327
3796,24.1844987501,4.02343941409,0.93114960114
3797,30.6312666509,4.68382451077,1.51644551893
3798,29.9211278726,4.45170794233,1.49760008281
3799,29.5943894888,3.94420736158,0.964894702362
3800,30.1402423476,3.96790683097,1.46729461955
3801,30.3045282671,4.17632393002,0.983740138484
3802,23.8320157161,4.01062575475,0.426098957868
3803,23.3579539575,4.69949884391,0.483874546029
3804,23.0515450824,4.30278724645,0.517893502294
3805,34.5887721823,3.55801158487,0.499894753753
3806,34.0044298833,3.55030378154,1.00122138905
3807,34.8713734602,3.56072130984,0.990326495676
3808,5.65552651758,4.42388672786,0.500430463562
3809,5.25002609215,3.72468661289,0.505229002707
3810,10.7700281054,3.41672135114,0.499998563235
3811,10.4935508106,3.41676872881,0.999999848425
3812,10.7700327539,3.41672203022,1.49999856324
3813,26.7272705254,3.99691188134,0.500005983047
3814,27.1099918184,3.27445902175,0.5
3815,20.5416497267,4.90015987629,1.49325725532
3816,19.9910857133,5.60269967021,1.51403977385
3817,19.7924468553,5.11052948314,1.48147351684
3818,11.4922236269,0.341767853556,1.48612046026
3819,11.6766025257,0.558649518962,0.986120400883
3820,35.1019043476,2.51865957941,1.49776732047
3821,35.3867302869,3.01147004293,1.49681322629
3822,35.1660178928,3.07746355947,0.996707980045
3823,34.5831639792,3.06598888957,1.49989475375
3824,34.8811919536,2.58465309595,0.99766207422
3825,19.0055539996,4.29722812231,1.48992008217
3826,18.8029407344,3.99921927797,0.991922639453
3827,18.1788982789,4.20443057879,1.50200255728
3828,18.7421169141,4.75904952449,1.48147351684
3829,18.5395036489,4.46104068016,0.983476074116
3830,19.3661593697,4.55383822367,0.971393599014
3831,30.8023739898,4.20731439482,1.50258562008
3832,30.9666599094,4.41573149388,1.01903113902
3833,30.475635606,3.69981381407,0.969880239633
3834,26.9724610538,4.81389917944,1.50000598305
3835,26.4718416427,5.24691188134,0.977515424006
3836,26.9993805889,5.56698729811,1.47750944096
3837,27.5391147139,4.85096927578,1.50318222031
3838,27.0384953028,5.28398197768,0.980691661271
3839,27.0115757676,4.53089385901,1.00318820336
3840,34.5831495812,3.56599120305,1.49989475375
3841,30.5823518484,4.60556102034,0.516445518934
3842,29.8722130701,4.3734444519,0.497600082811
3843,30.0913275451,3.88964334054,0.467294619551
3844,7.02246696859,1.10573231036,0.5
3845,7.04831124403,0.691538648929,1.00231952589
3846,7.07340950247,1.58107768714,1.03660148735
3847,33.999797659,0.433012701892,1.50124898053
3848,33.9454641148,0.669506655374,0.997633022514
3849,33.4456664558,1.10251935727,1.49638404198
3850,34.1823690041,0.987607830249,1.48217153596
3851,34.1280354599,1.22410178373,0.978555577938
3852,34.6821666631,0.554595128357,0.983420516492
3853,13.4999262606,0.433012701892,0.486087946564
3854,13.6047590681,0.693406972483,0.986087946564
3855,37.6807514754,2.99215947108,0.499850509711
3856,38.546164971,2.992900356,0.500146701843
3857,37.9722486203,3.49038458326,0.499927200869
3858,23.8336175287,3.5139266799,0.426098957868
3859,23.0531468951,3.80608817159,0.517893502294
3860,37.9603292666,2.49874118453,0.505004529713
3861,7.02261938032,1.10534901032,1.5
3862,26.9574343979,4.81861741813,0.500005983047
3863,26.984353933,5.57170553679,0.477509440959
3864,27.524088058,4.85568751447,0.503182220312
3865,30.7534591873,4.12905090439,0.502585620082
3866,28.0425443086,2.14410008941,1.50102658959
3867,2.94668294462,0.762645032229,1.02278091391
3868,2.92922963965,1.20866432008,0.5000172398
3869,2.48254669503,0.446019287855,0.522763674107
3870,2.23228057355,0.619525503973,1.02276149519
3871,2.21482726858,1.06554479183,0.499997821082
3872,2.67896351817,1.3821705362,1.00001506088
3873,0.470287443886,3.49958453427,0.520979801013
3874,0.420438477818,3.99387897344,0.520979801013
3875,7.38124556911,2.49731598015,0.5
3876,8.18608745842,2.50665225401,0.499776921238
3877,5.66682240897,4.44268153356,1.50043046356
3878,5.26132198354,3.74348141858,1.50522900271
3879,18.9215684913,3.4957668412,1.50091685668
3880,18.5922619776,3.94707709787,1.50200255728
3881,19.4189176983,4.03987464139,1.48992008217
3882,19.1322472482,3.5479090213,0.990836938851
3883,29.038280349,3.00048258432,1.50052163592
3884,28.7477241536,3.06249516425,1.00111677531
3885,28.4685111855,3.54146960687,1.50059513939
3886,29.2862856723,3.46993163858,1.46729461955
3887,28.995729477,3.53194421851,0.967889758942
3888,29.5654986404,2.99095719596,0.967816255472
3889,6.24023642173,5.45303867089,1.00738904124
3890,6.24023642173,5.02002596899,0.500430463562
3891,6.5,5.56698729811,0.506958577674
3892,6.98984213952,5.27478865156,1.00871781412
3893,6.98984213952,4.84177594966,0.501759236441
3894,6.73007856125,4.72782732244,1.0021897
3895,28.0331313822,2.1569269045,0.501026589591
3896,35.6049567377,1.85244122159,0.497767320467
3897,35.8718625991,1.35498977915,0.502206895233
3898,0.470287443886,3.49958453427,1.52097980101
3899,34.4893627346,0.422131231853,0.501248980534
3900,33.9352315313,1.09163788723,0.49638404198
3901,34.6719340796,0.97672636021,0.482171535958
3902,6.04831124403,0.691538648929,1.00231952589
3903,6.01579886505,1.16656800711,0.5
3904,5.46748762101,0.475029358179,0.502319525891
3905,5.32227993958,0.730358481394,1.00228408003
3906,5.2897675606,1.20538783957,0.499964554142
3907,5.87059118362,1.42189713032,0.999964554142
3908,6.01579810772,1.16655509191,1.5
3909,5.46748686369,0.475016442979,1.50231952589
3910,5.28976680327,1.20537492437,1.49996455414
3911,5.40920695692,3.00634839551,1.00453375347
3912,5.93119817518,3.00758334978,0.499304750764
3913,6.20608628898,3.07488738101,1.00091872819
3914,1.93122805165,4.45312249464,0.5
3915,1.94651939515,3.8852451268,0.500026688432
3916,1.9312224926,4.45322215001,1.5
3917,1.94651383609,3.88534478216,1.50002668843
3918,11.3178766189,5.46509747922,0.983415851109
3919,11.946246421,5.51900657686,0.486120460263
3920,12.1667630019,5.48447936014,0.980568727014
3921,34.5695514685,5.52944500734,1.52276367411
3922,34.30870934,5.47441990941,0.982934339204
3923,25.3649819046,1.84458244451,0.49802302536
3924,25.0853583294,1.35169756917,0.496011636042
3925,7.38226799141,2.49576404272,1.5
3926,8.18710988072,2.50510031657,1.49977692124
3927,30.5313868698,5.60100791425,0.522763674107
3928,30.0253305068,5.50211612592,0.522763674107
3929,30.679163155,5.04712871916,0.516445518934
3930,30.6477762852,5.44612080491,1.03920919304
3931,2.92922963965,1.20866432008,1.5000172398
3932,2.48254669503,0.446019287854,1.52276367411
3933,2.21482726858,1.06554479183,1.49999782108
3934,10.286066968,2.51287839531,0.50000128519
3935,10.9338404975,2.02355414366,0.529888319671
3936,23.9652915449,0.404301959073,0.477509440959
3937,23.314373739,0.957290393221,0.517040121384
3938,27.2939241855,4.03398197768,1.50318222031
3939,27.3942970607,3.80844099942,1.00318222031
3940,11.9326928806,5.51495009911,1.48612046026
3941,35.0920858542,3.4947277933,1.49043174192
3942,28.4695753376,3.55836282367,0.500595139391
3943,29.039344501,3.01737580112,0.500521635921
3944,29.2873498244,3.48682485539,0.467294619551
3945,10.1861392105,2.25173473531,0.99998549263
3946,10.4705682721,1.76546022169,0.49998420744
3947,10.83391274,1.76241048366,1.02987252711
3948,23.4658372165,0.404301959073,0.513912053436
3949,23.3483890436,0.552988434149,1.03095217482
3950,13.4999262606,0.433012701892,1.48608794656
3951,23.3973973239,3.25507901192,0.50019248878
3952,15.5008072028,3.47316157932,0.494210133853
3953,5.93017175569,2.99007916859,1.49930475076
3954,6.50774127223,5.55920866123,1.50695857767
3955,6.24797769396,5.01224733211,1.50043046356
3956,6.99758341175,4.83399731278,1.50175923644
3957,19.3876756896,4.11771112042,0.489920082175
3958,18.5610199688,4.0249135769,0.502002557278
3959,19.124238604,4.5795325226,0.481473516839
3960,18.8903264826,3.57360332022,0.500916856676
3961,11.5637368617,3.24647824999,1.49999877739
3962,11.2019121915,3.66473303347,1.49999856324
3963,28.9888176262,5.55891742764,1.48567040412
3964,8.8495687082,3.92038449985,1.0333350979
3965,8.57116981929,3.44332874725,0.533334982052
3966,8.57117016074,3.44332879712,1.53333498205
3967,37.935645694,5.53944158701,1.48123057673
3968,37.5,5.66506350946,1.48123057673
3969,37.3043226471,5.47519371992,0.974632011678
3970,37.3043226471,5.14025722939,1.49340143495
3971,24.7002247578,3.00000612661,1.50001251781
3972,24.0937072101,2.52032404999,1.51534023837
3973,24.2650306293,3.26062632886,1.42609895787
3974,23.9471906848,2.78094923063,0.941439196236
3975,24.5537082325,3.26063130725,0.92611147568
3976,11.4942956152,5.66449745732,0.486120460263
3977,11.3121722341,5.12959493654,0.497295390846
3978,20.3743030915,4.49359651501,1.49325725532
3979,20.115362241,4.34346861682,0.983177337495
3980,19.8885373057,4.24214471968,1.48992008217
3981,19.6251002201,4.70396612186,1.48147351684
3982,30.5868747319,1.39062515525,0.515837732463
3983,30.3237484824,1.85997783549,0.523682824607
3984,28.9866829845,5.57461627774,0.485670404119
3985,37.937057906,5.54670396053,0.481230576731
3986,29.0671711974,3.95373274994,1.49760008281
3987,8.00686612095,0.419351727034,1.50231952589
3988,8.5156313224,1.1283771516,1.4998482064
3989,19.1554806128,4.50169604357,1.48147351684
3990,25.5204964915,0.449624705743,0.499191112819
3991,26.0057286894,0.7013999094,0.996878467927
3992,26.0267207097,1.15102461514,0.497687355108
3993,25.2764371547,0.968885069272,0.496011636042
3994,25.7616693526,1.22066027293,0.993698991149
3995,25.2554451343,0.519260363529,0.995202748861
3996,35.5034579238,4.25292012759,1.49043174192
3997,35.8074313195,4.73596289016,1.49859000293
3998,11.5649276641,2.74857427806,0.499998777385
3999,11.3589636192,2.25988899002,0.529888319671
4000,8.0068200499,0.419443076939,0.502319525891
4001,8.51558525135,1.12846850151,0.499848206398
4002,11.5637157403,3.24647516444,0.499998777385
4003,11.2018910701,3.66472994792,0.499998563235
4004,35.5319677222,5.65720436549,0.48892158288
4005,35.7760887854,5.13497723484,0.49859000293
4006,5.41375106039,4.90631516651,1.00489965807
4007,5.08880473452,4.4241245526,0.504469194506
4008,5.00825063496,4.20711505154,1.00969819721
4009,26.0059764538,1.13441261129,1.49768735511
4010,25.4997522356,0.433012701892,1.49919111282
4011,25.2556928988,0.952273065422,1.49601163604
4012,3.65885861863,2.91866001148,0.971193151369
4013,3.36853616765,2.43690795804,1.47115158218
4014,3.26579641034,2.18004437119,0.97116882198
4015,10.4705701752,1.76546049969,1.49998420744
4016,10.286068871,2.51287867331,1.50000128519
4017,10.9338424005,2.02355442166,1.52988831967
4018,3.36856544306,2.43655000994,0.47115158218
4019,27.2939241855,4.03398197768,0.503182220312
4020,16.3140843438,3.97909557334,1.51526498046
4021,16.0407919415,3.50140270961,1.503451844
4022,15.4985908619,3.97671080677,1.49421013385
4023,16.0613865116,3.95580638012,1.00947511431
4024,14.9997522356,0.433012701892,0.500808887181
4025,15.4997041314,0.749556328314,1.00085452295
4026,39.6339745962,1.11602540378,1.4488412685
4027,38.9758744127,1.6909372876,0.499964353871
4028,38.640343959,1.27739183373,0.485256363635
4029,11.4816394386,5.66171012908,1.48612046026
4030,11.2995160575,5.1268076083,1.49729539085
4031,5.50286153172,2.25663441472,1.49930475076
4032,5.25067051068,1.73448305651,1.49996455414
4033,38.9886286842,1.70414696027,1.49996435387
4034,38.6530982305,1.2906015064,1.48525636363
4035,5.50286895353,2.25676098366,0.499304750764
4036,5.2506779325,1.73460962546,0.499964554142
4037,10.0189033112,0.485333542527,0.48892158288
4038,2.98254669503,0.446019287854,1.48892158288
4039,20.0200107261,5.56373206713,0.478582292442
4040,20.5505640134,5.29746020608,0.971839547762
4041,6.9752417145,5.59285704514,0.506958577674
4042,7.46508385401,4.8676456967,0.501759236441
4043,33.8232040907,4.1804650012,1.5013266353
4044,34.05870934,4.67057233212,1.4601706651
4045,13.7478978481,2.42618364889,0.509296110485
4046,13.5951737959,2.1905615839,1.00929611048
4047,13.8623896672,1.62243600996,0.5
4048,14.2935819214,1.91139758879,0.544773351096
4049,14.0263660501,2.47952316273,1.05406946158
4050,37.4865704898,5.67759872314,0.481230576731
4051,37.2908931369,5.15279244306,0.493401434947
4052,19.9854394356,4.82879303468,1.49325725532
4053,19.2362365642,5.03916264153,1.48147351684
4054,18.0937866637,4.12162327082,0.502002557278
4055,18.6570052989,4.67624221652,0.481473516839
4056,26.7217350978,4.4396698676,1.50000598305
4057,27.2883887579,4.47673996394,1.50318222031
4058,20.5,5.56698729811,0.478582292442
4059,20.5505640134,4.86444750419,0.49325725532
4060,21.5,5.65028979008,1.51403977385
4061,21.0505640134,4.94774999616,1.49325725532
4062,21.0505640134,5.29746020608,1.00729702917
4063,21.7834553855,5.49109427247,1.02082404836
4064,21.3340193989,4.78855447854,1.00004152983
4065,21.7834553855,5.14138406255,1.50678427451
4066,6,0.433012701892,1.50231952589
4067,6.5,0.433012701892,1.50695857767
4068,6.54831124403,0.691538648929,1.00695857767
4069,6.54831124403,1.12455135082,1.5
4070,14.9997522356,0.433012701892,1.50080888718
4071,2.98254669503,0.446019287855,0.48892158288
4072,9.75385091537,5.45772115843,0.988921573977
4073,9.81110835079,5.10778379885,1.4999999911
4074,9.55725743541,5.65006264042,1.48892158288
4075,8.9878887616,5.46655128089,0.98278630019
4076,9.04514619701,5.1166139213,1.49386471731
4077,9.24173967697,4.92427243931,0.993864708408
4078,23.51097048,2.52210156265,1.01553272715
4079,23.8288104245,3.00177866088,1.50019248878
4080,6.5,0.433012701892,0.506958577674
4081,6,0.433012701892,0.502319525891
4082,6.54831124403,1.12455135082,0.5
4083,39.589368249,1.51532835731,1.4488412685
4084,27.4997522356,5.56698729811,1.49919111282
4085,27.5388669494,5.28398197768,1.00237333313
4086,23.5035027843,5.66549049937,0.51403977385
4087,23.3351952935,5.44949884391,0.997914319879
4088,23.3386980778,5.11498934328,0.483874546029
4089,23.8787444824,4.92830415871,0.505050643273
4090,23.8752416981,5.26281365933,1.01909041712
4091,13.4119673568,1.97728081533,0.500008586782
4092,37.479453781,1.84172114085,0.505004529713
4093,37.1746425464,1.36084284703,0.506035020075
4094,25.3791710009,1.83996548651,1.49802302536
4095,25.0995474257,1.34708061117,1.49601163604
4096,29.0682353494,3.97062596674,0.497600082811
4097,9.96531828557,3.98586104416,1.50000011585
4098,9.6955339744,4.43779317053,1.00000010694
4099,10.2774861419,4.46351019049,1.4999999911
4100,10.7663670839,3.9229813064,1.49999856324
4101,10.4965827727,4.37491343277,0.999998554333
4102,10.1844149164,3.89726428644,0.999998679083
4103,9.96531131631,3.98586002605,0.500000115847
4104,10.2774791727,4.46350917238,0.499999991098
4105,10.7663601146,3.92298028829,0.499998563235
4106,5.1001006259,4.4429193583,1.50446919451
4107,6.91242842619,3.89186090664,1.50161397742
4108,6.52104951955,4.52252203611,1.50043046356
4109,7.27065523735,4.34427201678,1.50175923644
4110,7.12145746788,4.09716619297,1.00337321386
4111,23.8980003621,4.51281365934,0.505050643273
4112,24.0937505794,2.52037368625,0.515340238368
4113,24.7002681271,3.00005576287,0.500012517812
4114,24.2650739986,3.26067596513,0.426098957868
4115,8.5068200499,0.419443076939,0.506958577674
4116,8.50876520145,0.709025424569,1.00680678407
4117,8.50686612095,0.419351727034,1.50695857767
4118,28.0612770155,3.89669494928,0.500595139391
4119,27.7614142343,4.37893583356,0.503182220312
4120,5.50282891308,2.7504380611,1.49930475076
4121,4.76810310537,2.99918889402,1.50004156919
4122,5.26309394875,3.25176677741,1.50522900271
4123,4.67448114921,3.25509922843,1.0052705719
4124,4.76827417528,3.00210625755,0.500041569188
4125,5.50299998299,2.75335542463,0.499304750764
4126,5.26326501867,3.25468414095,0.505229002707
4127,33.8261824571,4.17150653208,0.501326635301
4128,34.0616877063,4.661613863,0.460170665097
4129,23.4230363025,1.3927343963,0.517040121384
4130,23.7125071523,1.86006943803,0.515340238368
4131,9.55725738258,5.6500626327,0.48892158288
4132,9.81110829795,5.10778379113,0.499999991098
4133,9.04514614417,5.11661391359,0.493864717311
4134,2.41096049948,1.44948323017,0.499997821082
4135,3.12536287055,1.59260275842,0.5000172398
4136,2.52041566759,2.02330042597,0.500027858478
4137,2.78841868628,1.95598773201,1.00004509828
4138,2.07401631521,1.81286820375,1.00002567956
4139,3.12534922754,1.59280425144,1.5000172398
4140,2.41094685646,1.44968472319,1.49999782108
4141,2.52040202457,2.02350191899,1.50002785848
4142,33.9883510298,0.422131231853,0.500535305529
4143,33.44445241,0.669506655374,0.996919347509
4144,7.4752417145,5.59285704514,0.502319525891
4145,7.48984213952,5.27478865156,1.00407876233
4146,13.7479683446,2.42603752656,1.50929611048
4147,13.4120378533,1.977134693,1.50000858678
4148,13.8624601638,1.62228988763,1.5
4149,35.1033150923,2.52187643733,0.497767320467
4150,35.3881410315,3.01468690085,0.496813226292
4151,34.5845747238,3.06920574748,0.499894753753
4152,16.0834684777,3.57686206588,0.503451843996
4153,16.35676088,4.05455492961,0.515264980461
4154,15.5412673981,4.05217016303,0.494210133853
4155,30.6492198366,1.3122059824,1.51583773246
4156,30.3860935871,1.78155866265,1.52368282461
4157,15.55859419,0.475599057963,0.500808887181
4158,15.5587938502,1.22515538628,0.500045635768
4159,9.12135330922,2.53384615722,0.479153730125
4160,9.70888809232,2.53040635219,0.979155015315
4161,8.91533632783,2.2869794418,0.978930651363
4162,28.051804298,3.87247004079,1.50059513939
4163,27.7519415168,4.35471092507,1.50318222031
4164,21.8407067431,3.50351588237,1.02283574002
4165,21.2569541129,3.50161641615,0.510087823517
4166,21.0923275548,3.78601087487,1.06031140085
4167,18.1271684832,4.67021928219,0.526039455967
4168,18.0096668331,4.45501774582,1.02804201324
4169,18.5728854684,5.00963669152,1.00751297281
4170,9.97832444056,0.45678773854,1.52276367411
4171,15.55859419,0.475599057961,1.50080888718
4172,15.5587938502,1.22515538628,1.50004563577
4173,14.2936524179,1.91125146645,1.5447733511
4174,27.4847255797,5.57170553679,0.499191112819
4175,6.22689626004,2.49932310983,0.999304750764
4176,6.50915251397,3.00188678041,0.5
4177,9.12135365066,2.53384620709,1.47915373013
4178,34.5693491275,0.475000440591,1.50124898053
4179,34.7519204725,1.02959556895,1.48217153596
4180,10.2744541798,3.50536548653,1.50000128519
4181,10.2744472105,3.50536446842,0.50000128519
4182,28.4487827061,2.48625271299,0.501026589591
4183,28.7316616977,2.48162040245,1.00154822551
4184,29.0346143253,2.52614045224,0.500521635921
4185,28.4648451619,3.06712747479,0.500595139391
4186,28.1618925343,3.022607425,1.00162172898
4187,26.3955148989,4.77182444668,0.500005983047
4188,26.4224344341,5.52491256535,0.477509440959
4189,25.7673926908,5.02330617378,0.524511096227
4190,25.8437194345,5.49839360843,1.00202053719
4191,25.8167998994,4.74530548977,1.02451707927
4192,9.44396429031,4.91486278846,1.4999999911
4193,8.67800213653,4.92369291092,1.49386471731
4194,29.000149411,0.433012701892,1.48129446032
4195,28.4812377996,1.12084048908,1.5019693704
4196,26.7224610538,4.44364166278,0.500005983047
4197,27.2891147139,4.48071175912,0.503182220312
4198,27.0030116462,0.43610253473,0.485670404119
4199,26.5090913352,1.13750244413,0.497687355108
4200,11.5649344338,2.74857526702,1.49999877739
4201,11.3589703889,2.25988997897,1.52988831967
4202,27.0180743931,0.415458196369,1.51763723595
4203,26.4756828295,0.412802948403,1.51763723595
4204,26.4825264588,1.1142028578,1.49768735511
4205,26.5051092783,0.7013999094,1.01532459106
4206,25.9763022406,0.412802948403,1.49919111282
4207,8.97832444056,0.45678773854,1.50695857767
4208,26.4223207086,5.52459110817,1.47750944096
4209,26.3954011734,4.7715029895,1.50000598305
4210,25.7672789653,5.0229847166,1.52451109623
4211,20.8428723669,4.65215464581,1.49325725532
4212,21.5757637389,4.84578871219,1.50678427451
4213,33.4688132174,0.413537924538,0.500535305529
4214,33.4156937189,1.08304457991,0.49638404198
4215,28.4524487297,2.96059484507,1.50102658959
4216,26.0198770804,0.449624705743,0.517637235955
4217,26.5022477058,0.43610253473,0.517637235955
4218,35.8197285908,3.26147235642,1.49681322629
4219,35.5250841581,3.74473010679,1.49043174192
4220,14.9774808712,4.69645894724,1.49302869582
4221,15.1225411776,4.48823769858,0.987238829674
4222,15.1008327232,4.1616428622,1.49421013385
4223,14.4224963414,4.5443200354,1.49977109638
4224,14.4442047958,4.87091487179,0.992799792206
4225,6.89968131162,3.91812628938,0.501613977423
4226,6.50830240499,4.54878741885,0.500430463562
4227,7.25790812278,4.37053739952,0.501759236441
4228,15.9052301083,4.36922771314,1.50330971259
4229,15.6525322761,4.34593851991,0.997519846445
4230,39.5766139775,1.50211868464,0.448841268503
4231,9.0068200499,0.419443076939,0.48892158288
4232,20.4910857133,5.60269967021,1.47858229244
4233,33.4987859543,0.433012701892,1.50053530553
4234,35.8198149786,2.76145847551,1.49681322629
4235,35.5349890394,2.26864801199,1.49776732047
4236,9.44396422167,4.91486277844,0.499999991098
4237,8.67800206789,4.92369290089,0.493864717311
4238,2.99779339165,2.24735706515,0.47115158218
4239,2.66084920738,2.61074203874,0.971179440658
4240,18.4913959372,3.2551504989,1.50091685668
4241,18.1620894234,3.70646075558,1.50200255728
4242,5.89491145759,2.07536704861,1.49930475076
4243,6.12278220466,1.94404848853,0.999304750764
4244,6.368751741,1.51439585794,1.5
4245,5.64272043655,1.55321569041,1.49996455414
4246,37.5563620107,4.25726218883,0.499927200869
4247,37.2625631859,4.73423079657,0.493401434947
4248,6.368751741,1.51439585794,0.5
4249,5.89491145759,2.07536704861,0.499304750764
4250,5.64272043655,1.55321569041,0.499964554142
4251,24.4811585967,5.546712816,0.478582292442
4252,24.0035027843,5.66549049937,0.478582292442
4253,24.3752416981,5.26281365933,0.983632935714
4254,24.3564002947,4.80952647534,0.505050643273
4255,37.2581403427,3.24996539023,1.49985050971
4256,37.5496374876,3.74819050242,1.49992720087
4257,28.9755791726,0.448683284894,0.481294460318
4258,28.4566675612,1.13651107208,0.501969370399
4259,6.50812609448,2.98438259923,1.5
4260,15.0730603062,3.73869582824,0.494210133853
4261,14.7511221021,3.26320642842,0.500080806714
4262,30.1878070038,2.99771100625,1.50096301479
4263,30.6210448532,2.74800138364,1.50096301479
4264,30.3760331984,2.26941805092,1.52368282461
4265,30.5233574932,2.51741943456,1.0246458394
4266,29.9427953489,2.51912767353,1.52368282461
4267,29.7103744116,3.22991274772,1.46729461955
4268,30.0459249011,2.74962117603,0.990977444157
4269,30.2909365559,3.22820450875,0.968257634346
4270,15.0723810145,3.71838867134,1.49421013385
4271,14.7504428105,3.24289927151,1.50008080671
4272,23.4738318742,5.60282463187,1.51403977385
4273,23.9937206642,5.52346241384,1.51403977385
4274,24.3689623622,4.78627607318,1.50505064327
4275,23.8490735722,4.8656382912,1.50505064327
4276,23.3945478984,2.75393987195,1.50019248878
4277,23.659444684,2.27248526106,1.51534023837
4278,30.1422613758,3.47846086075,1.46729461955
4279,30.804393018,3.7178684246,1.50258562008
4280,4.98875669934,0.34145941561,0.502319525891
4281,12.5480040366,2.04825177786,0.500008586782
4282,11.998150067,2.49893749086,0.499998777385
4283,11.7921860221,2.01025220282,0.529888319671
4284,12.0530029798,2.05850398067,1.02989690645
4285,14.9679255778,4.71643132136,0.493028695821
4286,15.0912774298,4.18161523632,0.494210133853
4287,14.412941048,4.56429240953,0.499771096385
4288,34.8330354156,2.03623610638,0.98796074242
4289,34.5350074412,2.5175719,1.49019342195
4290,34.3142950472,2.58356541653,0.990088175706
4291,37.2601420614,2.74953489709,1.49985050971
4292,37.5397198526,2.25611661055,1.50500452971
4293,29.4623690883,2.76046369346,1.50052163592
4294,15.2281379763,1.56673436244,0.500045635768
4295,14.7642111422,1.79954658543,0.544773351096
4296,18.4921314733,3.25190061056,0.500916856676
4297,18.1628249595,3.70321086723,0.502002557278
4298,12.4326928806,5.51495009911,1.52141770756
4299,12.6667630019,5.48447936014,1.01586597431
4300,21.0505640134,4.86444750419,0.49325725532
4301,21.5,5.56698729811,0.51403977385
4302,21.7834553855,5.05808157057,0.50678427451
4303,32.7833294472,3.51647005036,0.49859344439
4304,32.2120359431,3.49493162974,1.00230916208
4305,32.4886163119,3.02329836393,0.503715717693
4306,33.2233653779,2.85447104715,0.520530087071
4307,32.6520718738,2.83293262654,1.02424580476
4308,32.9467850091,3.32610431296,1.01912353146
4309,17.7350898201,4.44112261559,0.502002557278
4310,23.3090271676,5.05232347578,1.48387454603
4311,19.4348754221,5.53133282861,1.51403977385
4312,23.3583715825,1.31554110123,1.51704012138
4313,23.6478424323,1.78287614296,1.51534023837
4314,36.8245735195,3,0.499850509711
4315,36.2527412927,3.01147235642,0.496813226292
4316,32.7841538408,3.51787645923,1.49859344439
4317,32.4894407055,3.0247047728,1.50371571769
4318,33.2241897714,2.85587745602,1.52053008707
4319,34.5983886939,5.51553636637,0.522763674107
4320,12.9810167385,2.29825177786,0.500008586782
4321,13.3169472297,2.74715461142,0.509296110485
4322,10.1020972279,1.58199851511,1.49998420744
4323,9.62484610967,1.86067013198,1.47915373013
4324,9.99331905693,2.04413211656,1.47915373013
4325,16.4769201292,2.74789440436,0.503451843996
4326,16.7664397494,2.25188599302,0.501302036839
4327,27.5937869667,3.5517410934,1.50059513939
4328,27.6941598419,3.32620011514,1.00059513939
4329,7.71837216951,4.02478865156,0.501759236441
4330,7.8977277887,4.2151011393,1.03509421849
4331,38.318217102,0.941208160903,0.485256363635
4332,37.5490833662,4.24822511219,1.49992720087
4333,37.2552845414,4.72519371992,1.49340143495
4334,35.0934965988,3.49794465122,0.490431741923
4335,7.72450636185,4.01547697708,1.50175923644
4336,36.8250918464,2.99991671455,1.49985050971
4337,36.2532596196,3.01138907097,1.49681322629
4338,16.4738046434,2.75140270961,1.503451844
4339,16.7633242636,2.25539429827,1.50130203684
4340,27.9865384552,5.57461627774,0.499191112819
4341,28.5,0.433012701892,1.52276367411
4342,28.4812377996,0.687827787191,1.02473304451
4343,28.4754297616,0.448683284894,0.522763674107
4344,20.3642131354,3.00645910994,0.504375598607
4345,20.0826141334,2.52122763717,0.999814019008
4346,20.1995865773,3.29085356867,1.05459917594
4347,37.2575862213,2.75,0.499850509711
4348,37.5371640126,2.25658171346,0.505004529713
4349,30.3718593102,2.27590048066,0.523682824607
4350,29.8914330495,2.51723650059,0.500521635921
4351,30.1394383729,2.98668555485,0.467294619551
4352,7.75494095043,2.13848981069,1.53660148735
4353,7.17752355785,2.13635230844,1.03660148735
4354,7.98236544716,2.14568858229,1.03637840859
4355,12.9810167385,2.29825177785,1.50000858678
4356,13.3169472297,2.74715461142,1.50929611048
4357,29.0380780509,2.52548983466,1.50052163592
4358,28.4522464316,2.48560209541,1.50102658959
4359,9.99331715389,2.04413183856,0.479153730125
4360,12.9697705907,3.68144165165,0.500412871192
4361,13.3106804754,3.23630027455,0.509296110485
4362,14.310627254,3.00122140695,0.500080806714
4363,13.7499599316,2.99715461142,0.509296110485
4364,14.2956440049,2.48236855131,0.544773351096
4365,17.1811929308,3.99481572888,1.51526498046
4366,17.7642772603,4.51752703414,1.52603945597
4367,12.9701215316,3.68149291929,1.50041287119
4368,13.3110314163,3.23635154219,1.50929611048
4369,12.5480040366,2.04825177785,1.50000858678
4370,11.998150067,2.49893749086,1.49999877739
4371,11.7921860221,2.01025220282,1.52988831967
4372,9.13179643396,4.43721364213,1.50000011585
4373,8.92957182062,4.44662329299,0.993864833158
4374,23.6702575922,2.29007881636,0.515340238368
4375,23.8415810114,3.03038109524,0.426098957868
4376,10.9129561284,1.51438858236,1.49998420744
4377,11.6542383968,1.32087982047,1.49999994062
4378,10.912954683,1.5143883712,0.49998420744
4379,11.6542369513,1.32087960931,0.49999994062
4380,29.4603136683,2.75951616725,0.500521635921
4381,29.7083189917,3.22896522151,0.467294619551
4382,9.53769326979,3.73259024241,1.50000011585
4383,9.84682916398,3.25209468477,1.50000128519
4384,9.53769231305,3.73259010265,0.500000115847
4385,9.84682820724,3.25209454501,0.50000128519
4386,38.267817172,0.978121772809,1.48525636363
4387,15.9479066445,4.4446870694,0.503309712592
4388,35.51589452,4.23741925436,0.490431741923
4389,35.8198679157,4.72046201693,0.49859000293
4390,27.5937869667,3.5517410934,0.500595139391
4391,32.2120545314,0.970116212193,0.503636937351
4392,32.2097728285,0.537103510301,1.01640527241
4393,32.4977182971,0.433012701892,0.512768335059
4394,32.9456664558,1.10251935727,0.49638404198
4395,32.9433847529,0.669506655374,1.00915237704
4396,32.6577209872,1.20661016567,1.00002097933
4397,38.5233875836,2.43097807404,0.499964353871
4398,38.8212982578,2.43955948788,1.00011105571
4399,38.2354625535,1.94540031642,1.00496888358
4400,9.13179636532,4.43721363211,0.500000115847
4401,38.5705785707,2.4976928232,1.50014670184
4402,37.9847428664,2.00353365173,1.50500452971
4403,19.5848089537,4.60974047788,0.489920082175
4404,5.93697558683,2.5025098396,0.499304750764
4405,6.51492992562,2.49681327024,0.5
4406,30.616870965,2.75448381338,0.500963014795
4407,7.75391852813,2.14004174813,0.536601487351
4408,12.446246421,5.51900657686,0.521417707558
4409,17.732836168,3.93559361375,0.502002557278
4410,17.1831336579,3.96147831986,0.515264980461
4411,27.9753265264,0.448683284894,0.485670404119
4412,20.3087310124,4.49109778766,0.49325725532
4413,19.8229652266,4.23964599233,0.489920082175
4414,32.3584176045,2.2640876837,1.50387162445
4415,32.2141933254,2.51496765536,1.00758734215
4416,32.0615470869,2.75087997166,1.50371571769
4417,32.7962961528,2.58205265488,1.52053008707
4418,32.9489423914,2.34614033858,1.02440171152
4419,3.08163854512,2.02876534538,1.5000172398
4420,2.47669134216,2.45946301293,1.50002785848
4421,25.1332352484,2.7500055525,1.50001251781
4422,25.4241005418,2.26214523887,1.49802302536
4423,14.3127328995,3.00152901285,1.50008080671
4424,13.7520655771,2.99746221732,1.50929611048
4425,33.6934664177,1.47916232501,1.49638404198
4426,33.8287357104,1.68708086886,0.986577463934
4427,34.1308692166,1.82722988312,1.49019342195
4428,34.430168966,1.36425079799,1.48217153596
4429,34.5654382587,1.57216934184,0.972364957911
4430,25.535316474,1.44515794076,1.49802302536
4431,10.102057392,1.58206406371,0.49998420744
4432,9.62480627373,1.86073568058,0.479153730125
4433,38.5584693425,3.49713145561,1.50014670184
4434,37.9845529918,3.99461568287,1.49992720087
4435,38.5478011833,1.93577054124,1.49996435387
4436,8.23756794827,1.49209640049,0.499848206398
4437,7.75390100526,1.67261001413,0.536601487351
4438,23.4053608066,2.77153342726,0.50019248878
4439,25.9229801058,5.52491256535,0.513912053436
4440,25.4999262606,5.659289501,0.513912053436
4441,25.3443388456,5.15768310943,0.524511096227
4442,25.3442651062,5.49839360843,1.03842314966
4443,35.8270578956,2.7780042992,0.496813226292
4444,35.5422319564,2.28519383568,0.497767320467
4445,32.5031962612,0.440694792445,1.51276833506
4446,32.2175324955,0.977798302746,1.50363693735
4447,32.9511444199,1.11020144782,1.49638404198
4448,37.2575862213,3.25,0.499850509711
4449,37.5490833662,3.74822511219,0.499927200869
4450,12.0701960651,1.55864951896,0.49999994062
4451,11.5751950083,1.56890172178,1.02988826029
4452,16.4739574596,3.25412083439,1.503451844
4453,16.747249862,3.73181369812,1.51526498046
4454,38.8839745962,0.366025403784,1.4488412685
4455,16.4839872031,3.23361565015,0.503451843996
4456,16.7572796055,3.71130851388,0.515264980461
4457,37.9868451692,4.00125857893,0.499927200869
4458,38.5607615199,3.50377435167,0.500146701843
4459,38.5419791125,4.0618932425,0.498254906395
4460,38.8252932378,3.55960066067,0.998401608238
4461,17.7308954408,3.96893102277,1.50200255728
4462,11.6688258777,0.90041733237,0.49999994062
4463,25.133508732,3.25030681474,0.500012517812
4464,25.3752151582,3.74296453286,0.517229620984
4465,24.4937206642,5.52346241384,1.47858229244
4466,2.95406906622,2.68351965211,1.47115158218
4467,2.53299775307,4.3223482422,1.00114594911
4468,2.41086807281,4.54705644223,0.5
4469,2.97816104799,4.11338591731,0.501145949106
4470,2.54828909657,3.75447087436,1.00117263754
4471,2.42615941631,3.97917907439,0.500026688432
4472,2.41680587435,4.55515885084,1.5
4473,2.98409884953,4.12148832591,1.50114594911
4474,2.43209721785,3.98728148299,1.50002668843
4475,11.3762283538,1.77248250433,1.52988831967
4476,35.1018899496,2.01866189289,1.49776732047
4477,34.5349930433,2.01757421348,1.49019342195
4478,9.85437028806,2.76515608043,1.50000128519
4479,9.56162047395,2.29640952368,1.47915373013
4480,18.4918692951,2.75218228083,1.50091685668
4481,18.1897270965,2.27933935987,1.50940320647
4482,6.47286579638,2.06967047924,1.5
4483,6.70073654345,1.93835191916,1
4484,2.4767205387,2.45896085313,0.500027858478
4485,2.95409826276,2.68301749232,0.47115158218
4486,6.47286579638,2.06967047925,0.5
4487,38.5396869351,4.05525034644,1.49825490639
4488,27.9991328245,5.56698729811,1.51763723595
4489,19.4906859065,3.49779724553,1.50437559861
4490,19.2040154564,3.00583162544,1.00529245528
4491,19.7013646634,3.54993942564,0.994295680782
4492,25.5560607299,1.46176994461,0.49802302536
4493,33.8264797245,2.34962686836,1.01072350902
4494,33.6912104318,2.14170832451,1.52053008707
4495,33.3890769256,2.00155931025,1.01691412905
4496,28.5112991577,2.04379767035,1.50102658959
4497,28.3041528388,1.90869411879,1.00299595999
4498,15.2279177373,1.56652342179,1.50004563577
4499,14.7639909032,1.79933564478,1.5447733511
4500,6.97415572455,0.414193661433,0.506958577674
4501,21,5.56698729811,0.478582292442
4502,25.1332352484,2.7500055525,0.500012517812
4503,25.4241005418,2.26214523887,0.49802302536
4504,33.3531589987,3.50673097076,0.501326635301
4505,33.0765786299,3.97836423658,0.999920079691
4506,33.5166145606,3.31636523337,1.02185672237
4507,28.4950081314,2.05290952556,0.501026589591
4508,18.9243066423,3.00034074387,1.50091685668
4509,19.4934240575,3.00237114821,1.50437559861
4510,6.97430813629,0.413810361387,1.50695857767
4511,33.3539833923,3.50813737963,1.5013266353
4512,28.0189415687,0.415458196369,1.52276367411
4513,29.4953482256,4.20097427127,1.49760008281
4514,29.7144627006,3.71717315991,1.46729461955
4515,4.67050024565,4.69565806695,1.50446919451
4516,4.32675135176,4.28152905368,1.52984724817
4517,33.6671053764,1.4525244926,0.49638404198
4518,34.4038079247,1.33761296558,0.482171535958
4519,21.0798714267,4.29654852717,1.00334507884
4520,21.3216157667,4.35378276082,1.51008782352
4521,21.8127627988,4.49018259356,1.01687209803
4522,25.9228663802,5.52459110817,1.51391205344
4523,5.93697558683,2.5025098396,1.49930475076
4524,6.51492992562,2.49681327023,1.5
4525,35.8209501416,3.26422768021,0.496813226292
4526,35.5263057089,3.74748543058,0.490431741923
4527,8.23791403743,1.49135037598,1.4998482064
4528,7.75424709442,1.67186398962,1.53660148735
4529,2.47978227557,2.93414949358,1.50002785848
4530,2.0898794741,3.00347471549,1.00005454691
4531,2.38619026636,3.55093880952,1.50002668843
4532,2.95715999963,3.15820613276,1.47115158218
4533,2.56725719816,3.22753135468,0.971178270612
4534,11.3762269083,1.77248229317,0.529888319671
4535,18.2122800983,4.75302659016,1.52603945597
4536,12.0701960651,1.55864951896,1.49999994062
4537,21.9774421224,3.2473082075,0.512747916502
4538,21.6953502059,3.74196896732,0.510087823517
4539,24.7176370816,3.49378023376,1.50001251781
4540,24.9593435079,3.98643795188,1.51722962098
4541,24.7954146588,3.75328902537,0.943328578852
4542,24.2824429531,3.75440043602,1.42609895787
4543,32.9677455602,0.413537924538,0.512768335059
4544,3.62991110889,3.983486341,1.03099319728
4545,3.32594108096,4.43983264676,0.501145949106
4546,3.07294055373,4.44081207057,1.01414072647
4547,34.1045081753,1.80059205071,0.490193421953
4548,25.4999262606,5.65842067762,1.51391205344
4549,25.3443388456,5.15681428605,1.52451109623
4550,12.9287272777,4.11791693515,1.50041287119
4551,13.4739063071,4.53500892661,1.49977109638
4552,32.5055319215,1.44710038559,0.503871624452
4553,32.2175864529,1.551191194,1.0075085618
4554,32.9511983773,1.68359433908,1.00025566643
4555,21.5293074133,4.5660756192,0.510087823517
4556,22.6196850808,4.04523259346,0.517893502294
4557,16.0372075645,1.50507022774,0.500045635768
4558,16.7419228834,1.7609081977,0.501302036839
4559,16.6839516675,1.5331551731,0.993281690081
4560,16.5165401215,1.28327477425,0.491979653242
4561,15.9792363485,1.27731720314,0.992025289011
4562,9.85436919613,2.76515592092,0.50000128519
4563,9.56161938202,2.29640936417,0.479153730125
4564,4.756351732,4.02879034503,1.52984724817
4565,4.66450174106,3.79298603827,1.03507625088
4566,22.6559780189,4.00401896781,1.51789350229
4567,16.0483453989,1.50078720001,1.50004563577
4568,16.7530607178,1.75662516996,1.50130203684
4569,16.5276779558,1.27899174652,1.49197965324
4570,36.7901179435,1.03720879985,0.506035020075
4571,36.2255990821,1.03271583066,0.502206895233
4572,16.9998554707,0.335627099591,1.49349084275
4573,17.4962853639,0.453248893554,1.49349084275
4574,16.9791399235,0.527760874829,0.98547049599
4575,16.975714346,0.981009768382,1.49197965324
4576,16.4792844528,0.86338797442,1.49197965324
4577,32.7854868295,2.53650607597,0.503871624452
4578,4.67351463866,5.11993489837,1.50446919451
4579,25.1332485164,3.25000899715,1.50001251781
4580,25.3749549426,3.74266671528,1.51722962098
4581,34.5364181859,2.52078875791,0.490193421953
4582,13.9999262606,0.433012701892,0.486087946564
4583,30.6836860385,0.94905745642,0.515837732463
4584,24.8613993048,4.25547692995,1.02228026426
4585,24.3484275992,4.2565883406,1.50505064327
4586,12.9258858983,4.11771150034,0.500412871192
4587,13.4710649276,4.5348034918,0.499771096385
4588,32.0018221618,4.64850305654,1.50347559585
4589,32.2076851006,4.45794519523,1.00206904024
4590,32.3008861396,4.17866117748,1.49859344439
4591,31.6163952245,4.15422020836,1.50258562008
4592,31.8222581633,3.96366234705,1.00117906447
4593,31.5231941856,4.43350422611,1.00606121593
4594,9.83766632524,4.69926603063,0.499999991098
4595,9.52549846889,4.2216168843,0.500000115847
4596,9.83766652076,4.69926605918,1.4999999911
4597,9.52549866441,4.22161691286,1.50000011585
4598,19.9377245447,2.7785588155,0.504375598607
4599,20.2472058066,2.2919244229,0.495438420401
4600,32.9977182971,0.433012701892,1.51276833506
4601,17.6270727852,0.525750701326,0.993375478014
4602,17.6236472076,0.97899959488,1.49988463527
4603,17.1065017672,1.05351157615,0.991864288508
4604,16.9648898782,1.00312641907,0.491979653242
4605,17.1902726402,1.48075984252,0.501302036839
4606,17.3318845291,1.5311449996,1.00118667211
4607,17.6128227399,1.00111624557,0.499884635266
4608,17.1984531597,1.99826729145,1.50130203684
4609,17.7590927669,2.02193068277,1.50940320647
4610,32.5110098856,1.45478247615,1.50387162445
4611,17.4854608962,0.475365544245,0.493490842748
4612,17.0041090655,0.337102682874,0.493490842748
4613,16.4835380475,0.864863557703,0.491979653242
4614,10.5717275343,4.92281863765,0.997295381944
4615,10.8415118455,4.47088651128,1.49729539085
4616,10.8415048762,4.47088549317,0.497295390846
4617,18.9416172444,3.0315833546,0.500916856676
4618,19.5107346595,3.03361375894,0.504375598607
4619,19.4389664514,3.5756911548,0.489920082175
4620,23.0002284477,3.45300980814,1.50019248878
4621,13.9993805889,0.433012701892,1.52249055904
4622,17.1756108175,1.27698157302,1.49988463527
4623,3.89611491678,4.02863534782,1.52984724817
4624,3.36649453614,3.93382672409,1.50114594911
4625,3.33914436163,4.48596107739,1.51299477736
4626,3.35494384696,3.91236786476,0.501145949106
4627,3.88456422761,4.00717648848,0.529847248174
4628,38.5044871204,0.415935011814,0.448841268503
4629,22.4030064766,3.00827027221,0.512747916502
4630,22.684436177,3.00620564805,1.01294040528
4631,22.964643994,3.00562079771,0.50019248878
4632,22.6203935652,3.55662995738,0.517893502294
4633,22.3401857482,3.55721480772,1.0306414188
4634,4.62860455842,4.62698477322,0.504469194506
4635,4.28485566452,4.21285575996,0.529847248174
4636,31.915734745,3.98296965562,1.49859344439
4637,31.2312438299,3.9585286865,1.50258562008
4638,3.90154590511,3.00157251655,0.500041569188
4639,3.89454363575,3.46928967864,0.500041569188
4640,3.63989051703,3.44559953116,1.00118751829
4641,3.36194611632,3.44465070267,0.501145949106
4642,18.8602608213,2.28208426515,1.49660649877
4643,19.0032895674,2.53370320542,0.997523355442
4644,18.7011473687,2.06086028446,1.00600970524
4645,24.6983146035,3.510927017,0.426098957868
4646,3.38091421792,2.91771118299,0.47115158218
4647,3.11925882984,3.3617381976,0.972297531286
4648,17.1895787975,2.00763608865,0.501302036839
4649,17.7502184048,2.03129947996,0.509403206474
4650,32.0579561023,3.25458945293,0.503715717693
4651,32.3526692376,3.74776113935,0.49859344439
4652,31.6681783225,3.72332017023,0.502585620082
4653,31.527545028,3.47049066062,1.00630133778
4654,3.90609432493,3.49074853797,1.50004156919
4655,3.90140000128,3.00422752726,1.50004156919
4656,3.36180021249,3.44730571338,1.50114594911
4657,32.3527050036,3.74782215598,1.49859344439
4658,32.0579918683,3.25465046956,1.50371571769
4659,31.6682140886,3.72338118686,1.50258562008
4660,14.2977496504,2.48267615721,1.5447733511
4661,21.6916828822,2.29628141293,0.496023614208
4662,21.9823799051,2.77671548537,0.512747916502
4663,30.1341027442,3.46629327378,0.467294619551
4664,30.7962343864,3.70570083764,0.502585620082
4665,7.9878887616,5.46655128089,0.996184243202
4666,7.96313047609,5.05940832603,0.493864717311
4667,7.97773090111,4.74133993244,0.995623953751
4668,32.0615470869,2.75087997166,0.503715717693
4669,32.3584176045,2.2640876837,0.503871624452
4670,18.9992343569,1.61483656487,1.50361883873
4671,18.4068460243,1.64389425446,1.01302204521
4672,18.6230019765,2.02905768959,1.50940320647
4673,19.2935357014,2.03180259487,1.49660649877
4674,19.0773797491,1.64663915974,1.0002253375
4675,2.95081087348,4.6655202706,0.512994777365
4676,2.50564757856,4.87448259549,1.01299477736
4677,22.9639355096,3.49422343379,0.50019248878
4678,38.4918465726,1.86112466297,0.499964353871
4679,37.9287882556,1.92888777347,0.505004529713
4680,21.6853332117,2.28371027232,1.49602361421
4681,21.9760302346,2.76414434475,1.5127479165
4682,15.4979166763,4.57413214269,0.503309712592
4683,15.5291804241,4.88075460495,0.996338408413
4684,15.5074719696,4.55415976856,1.50330971259
4685,4.16951089767,3.54040815488,1.02988881736
4686,19.1415392023,1.03755673834,0.503618838733
4687,18.8915392023,0.61483656487,0.503618838733
4688,18.655625303,1.04367491982,0.503618838733
4689,4.78982591606,3.92754683351,0.505229002707
4690,22.9024541525,2.48499126011,0.993695705226
4691,23.0509283565,2.23537495851,1.49350321645
4692,23.1673509381,2.00353664921,1.00884345481
4693,7.48984213952,4.84177594966,1.50175923644
4694,7.5,5.56698729811,1.50231952589
4695,7.9878887616,5.03353857899,1.49386471731
4696,24.9466130037,4.00128728106,0.517229620984
4697,24.3356970951,4.27143766978,0.505050643273
4698,24.269712449,3.7692497652,0.426098957868
4699,30.6517037479,0.886257809775,1.51583773246
4700,33.3379802755,4.47491205224,0.996663711153
4701,33.5147761847,4.68675189645,1.49533707585
4702,33.5734855248,4.96501938316,0.955507740949
4703,2.95674867501,4.6736226792,1.51299477736
4704,23.2715536062,2.08136155178,0.515340238368
4705,23.0066568206,2.56281616268,0.50019248878
4706,22.6630372787,2.04425124924,0.493503216446
4707,35.5137741867,1.77061741752,1.49776732047
4708,35.780680048,1.27316597508,1.50220689523
4709,23.3503411148,0.890464331831,1.51704012138
4710,3.38076831409,2.92036619371,1.47115158218
4711,1.06141687527,2.24337677693,0.500002948386
4712,1.65589182983,2.18997295371,1.00003080686
4713,1.58899652876,2.44008922277,0.500027858478
4714,1.0237177761,2.78600146471,0.5
4715,1.61819273066,2.73259764149,1.00002785848
4716,1.09061307717,2.53588519565,1.00000294839
4717,1.06141621188,2.24338838729,1.50000294839
4718,1.58899586537,2.44010083313,1.50002785848
4719,1.02371711271,2.78601307507,1.5
4720,18.8978479674,1.4237544907,0.503618838733
4721,18.521615587,1.83797561542,0.509403206474
4722,19.1921493119,1.8407205207,0.496606498767
4723,18.5431936041,2.7323239782,0.500916856676
4724,18.2410514054,2.25948105724,0.509403206474
4725,4.3257603663,3.23886655774,0.500041569188
4726,4.82075120969,3.49144444114,0.505229002707
4727,22.9639795809,2.99970550645,1.50019248878
4728,22.4023420636,3.00235498095,1.5127479165
4729,22.6197291521,3.55071466612,1.51789350229
4730,33.6440027824,1.93576746222,0.490193421953
4731,33.2065999835,1.58769990411,0.49638404198
4732,33.2043439976,2.25024590361,0.520530087071
4733,4.3345095175,3.25350772251,1.50004156919
4734,4.82950036089,3.50608560591,1.50522900271
4735,32.5622877851,4.67520899314,1.49533707585
4736,32.4690867462,4.95449301089,0.998812671705
4737,32.7681507239,4.48465113183,0.993930520242
4738,19.5,0.422720173466,0.51403977385
4739,19.1415392023,0.61483656487,1.01765861258
4740,33.5177545511,4.67779342732,0.495337075852
4741,38.4540871905,0.45284862372,1.4488412685
4742,33.2199117047,1.60144421564,1.49638404198
4743,33.2176557188,2.26399021515,1.52053008707
4744,30.6477762852,5.11267237007,1.51644551893
4745,5.69648155287,4.94873091559,0.500430463562
4746,5.1297597698,4.94896874033,0.504469194506
4747,16.4991328245,0.335627099591,1.48236276405
4748,16.4784172772,0.527760874829,0.974342417288
4749,30.6196939679,3.24625911928,1.50096301479
4750,15.9790366883,0.527760874829,0.992788540423
4751,16.0381264071,1.00335993279,1.49197965324
4752,9.10869127898,3.97245029242,0.500000115847
4753,8.57489386913,3.93269076806,0.533334982052
4754,36.249615714,5.0334466729,1.49859000293
4755,36.8098172979,5.03086752347,1.49340143495
4756,18.9115851303,2.26222596252,0.496606498767
4757,16.0381264071,1.00335993279,0.491979653242
4758,37.558166681,1.75450987876,1.50500452971
4759,37.2533554465,1.27363158494,1.50603502007
4760,22.9627828093,2.50177808677,1.50019248878
4761,22.6191632675,1.98321317333,1.49350321645
4762,2.03276201191,2.6938161328,1.50002785848
4763,1.93917000269,3.31060544874,1.50002668843
4764,36.7890833948,0.979000461849,1.50603502007
4765,36.2245645333,0.974507492667,1.50220689523
4766,15.55859419,5.52440094204,1.50080888718
4767,15.9997522356,5.66437290041,1.50080888718
4768,15.7793379968,5.36922771314,1.00411859977
4769,15.8384277157,4.89362865518,1.50330971259
4770,7.86593218178,5.65780744075,0.502319525891
4771,8.35382094338,5.12435872164,0.493864717311
4772,16.5033864193,0.337102682874,0.482362764045
4773,23.1039908248,1.82295913549,0.493503216446
4774,22.7494812845,1.6755410792,0.493503216446
4775,30.0315362808,0.398992085749,0.481294460318
4776,5.70400951368,4.97600845543,1.50043046356
4777,5.13728773062,4.97624628017,1.50446919451
4778,8.70662057155,1.63722340014,1.4998482064
4779,9.15592450921,1.95902787329,1.47915373013
4780,34.1071642266,2.27654842412,1.49019342195
4781,33.6675054418,2.59102686551,1.52053008707
4782,15.7616611041,4.94494773961,0.503309712592
4783,15.2316700056,5.08724691829,0.493028695821
4784,30.5318507254,0.398992085749,0.509781446244
4785,20.2055505885,1.82653026345,1.4954384204
4786,20.6849143064,1.56785992207,0.978007714468
4787,20.4983694995,1.35979694096,1.48256929407
4788,19.9460219557,1.33790158507,1.51021278585
4789,20.4253856736,1.0792312437,0.992782079918
4790,20.1325667625,1.54596456619,1.00565120625
4791,21.8099697514,1.55703152734,1.00096048654
4792,21.9957166616,1.35263241211,1.50493687233
4793,21.7271515239,1.84358786244,1.49602361421
4794,21.2595689156,1.57455678863,0.978592908275
4795,21.4453158258,1.3701576734,1.48256929407
4796,21.5281340532,1.0836013383,0.987506166399
4797,33.7921151775,3.73431257849,0.501326635301
4798,34.1501368793,3.31599120305,0.499894753753
4799,29.4859940074,4.18613403492,0.497600082811
4800,29.7051084823,3.70233292357,0.467294619551
4801,15.4818275784,5.57572002648,0.500808887181
4802,16.0295857613,5.36922771314,0.503309712592
4803,30.9530681981,3.46761207261,1.00354863488
4804,12.9432177966,4.65989487197,0.494448266751
4805,13.3613731349,4.84386734012,0.994219363136
4806,31.4888080085,4.77274148761,0.503475595853
4807,31.3520868467,4.91001434206,1.01992111479
4808,30.9322737323,4.75496875537,0.516445518934
4809,31.1033810712,4.27845863942,0.502585620082
4810,7,5.56698729811,1.50695857767
4811,7.86165550294,5.65528517978,1.50231952589
4812,8.34954426453,5.12183646067,1.49386471731
4813,9.10869149534,3.97245032402,1.50000011585
4814,8.5748940855,3.93269079967,1.53333498205
4815,8.65489719791,4.45892959281,1.49386471731
4816,8.39577441078,4.40686376863,1.02719969936
4817,20.4577196821,1.37919373276,0.482569294067
4818,20.1649007711,1.84592705525,0.495438420401
4819,19.9053721383,1.35729837688,0.510212785851
4820,20.6797759759,1.94603356246,1.4954384204
4821,21.2544305851,1.95273042901,1.49602361421
4822,10.2662091121,5.00934782973,1.4999999911
4823,10.8302348157,5.01672415052,1.49729539085
4824,22.620360039,2.48114059301,1.49350321645
4825,31.0534650187,2.99862979996,1.50096301479
4826,31.3097997392,2.49303669435,1.49819519531
4827,31.0247038686,2.49040966168,0.999158210104
4828,30.8773795737,2.24240827804,1.49819519531
4829,36.2548160469,5.03392333034,0.49859000293
4830,36.8150176308,5.03134418091,0.493401434947
4831,32.216960065,4.20945380928,0.49859344439
4832,31.5324691499,4.18501284016,0.502585620082
4833,32.221553723,5.04543112819,0.503475595853
4834,32.5206177008,4.57558924912,0.49859344439
4835,32.7820193463,5.07213706478,0.495337075852
4836,10.2662091121,5.00934782974,0.499999991098
4837,10.8302348157,5.01672415053,0.497295390846
4838,19.4343635152,0.475212896514,1.51403977385
4839,18.9934456942,0.33684307824,1.51403977385
4840,18.6349848965,0.95167964311,1.50361883873
4841,19.0759027175,1.09004946138,1.50361883873
4842,4,5.66665840275,1.48892158288
4843,16.2292844528,0.527760874829,1.49197965324
4844,8.65489698155,4.4589295612,0.493864717311
4845,4.98875669934,0.34145941561,1.50231952589
4846,22.4022979923,3.49687290829,0.512747916502
4847,29.9998967648,5.66655156516,1.48567040412
4848,12.946059176,4.66010030678,1.49444826675
4849,22.6210244521,2.48705588427,0.493503216446
4850,22.3408166351,2.48764073461,1.00625113295
4851,20.3211871406,3.98056013536,0.550223577329
4852,20.1278183691,3.83293096453,1.0401436595
4853,20.6135841549,4.08438275986,1.04348083265
4854,25.890379448,4.49609663376,0.500005983047
4855,25.2622572399,4.74757836085,0.524511096227
4856,31.1684807206,0.940109211137,0.515837732463
4857,30.9022991687,0.550065370671,0.515837732463
4858,29.9995539902,0.336192439104,1.48129446032
4859,33.7921151775,3.73431257849,1.5013266353
4860,34.1501368793,3.31599120305,1.49989475375
4861,18.9251441752,2.50190061055,1.50091685668
4862,15.1616694087,1.98236855131,1.5447733511
4863,25.404076001,4.24184802304,0.517229620984
4864,25.3304964523,4.49105687905,1.04174071721
4865,24.0012589207,0.337475897682,1.47750944096
4866,31.5830277287,3.44114661118,0.503715717693
4867,31.1932499489,3.90987732848,0.502585620082
4868,16.2292844528,0.527760874829,0.491979653242
4869,23.227679595,2.02032347588,1.51534023837
4870,20.6778359126,1.94992868022,0.495438420401
4871,21.2524905218,1.95662554677,0.496023614208
4872,18.208618307,1.78094562002,1.50940320647
4873,18.5848506874,1.3667244953,1.50361883873
4874,17.6121288972,1.5279924917,0.499884635266
4875,31.7434049775,2.24240827804,0.498195195309
4876,31.5991806984,2.4932882497,1.001910913
4877,31.8960512161,2.00649596174,1.00206681976
4878,32.3079908697,1.83396707041,1.50387162445
4879,31.7434049775,2.24240827804,1.49819519531
4880,31.6929782427,1.81228766474,1.49819519531
4881,21.7362672892,4.17851578822,0.510087823517
4882,21.9904152614,4.67052173959,0.50678427451
4883,21.2630243978,4.07041780789,0.510087823517
4884,20.7842809979,4.36878969287,0.49325725532
4885,31.6279418486,3.00150838798,1.50371571769
4886,31.628534385,2.50087997166,1.50371571769
4887,31.3103922756,1.99240827804,1.49819519531
4888,19.6865190648,0.528667943907,1.0242525597
4889,19.6865190648,0.951388117373,0.510212785851
4890,19.3280582672,1.14350450878,1.01383162458
4891,2.0327717419,2.69364474032,0.500027858478
4892,2.51014946596,2.91770137951,0.47115158218
4893,18.4934456942,0.33684307824,1.47858229244
4894,18.6415392023,0.61483656487,0.982201131175
4895,19.2926981685,2.53024272819,1.49660649877
4896,35.3373595808,1.38837445705,0.482171535958
4897,35.1323351651,1.57325702125,0.979938856425
4898,35.3992410264,1.07580557881,0.984378431191
4899,10.992223352,0.341767813408,0.522763674107
4900,39.3992604352,1.93881860296,1.49996435387
4901,38.9686070803,2.19290511177,1.49996435387
4902,31.6166707672,4.45281153468,1.50347559585
4903,32.2043105614,5.03088083526,1.50347559585
4904,32.7647761847,5.05758677185,1.49533707585
4905,15.3084366172,5.03592783385,1.49302869582
4906,32.0145134796,1.35698289701,1.50363693735
4907,31.1639578371,5.05607696445,0.516445518934
4908,30.8977762852,5.44612080491,0.516445518934
4909,38.9817219247,4.29909257795,0.498254906395
4910,39.4032554152,4.05885977575,0.498254906395
4911,38.9713061907,3.80643073242,0.498254906395
4912,25.4206109611,4.24162613892,1.51722962098
4913,24.8096950525,4.51177652764,1.50505064327
4914,25.2787922,4.74735647673,1.52451109623
4915,24.7195805437,4.76120726776,1.0295617395
4916,4.32453010935,3.79139453236,1.52984724817
4917,35.1392924581,1.94631040803,0.497767320467
4918,34.5723955517,1.94522272861,0.490193421953
4919,13.48540602,5.55353450926,0.486087946564
4920,13.9625335677,5.58603927271,0.486087946564
4921,13.6945363936,5.35938797998,0.985859042949
4922,14.1572174402,4.94542725269,0.499771096385
4923,13.6800898924,4.91292248924,0.499771096385
4924,1.93900260964,1.54250495792,0.499997821082
4925,2.04845777775,2.11632215373,0.500027858478
4926,1.9389970487,1.54260117968,1.49999782108
4927,2.04845221682,2.11641837548,1.50002785848
4928,8.70642486515,1.63755165051,0.499848206398
4929,9.15572880281,1.95935612366,0.479153730125
4930,18.1142180005,1.83797669782,0.509403206474
4931,18.4904503809,1.4237555731,0.503618838733
4932,21.7759678633,0.980516732087,0.504936872332
4933,21.5074027257,1.47147218242,0.496023614208
4934,21.2255670275,0.998041993375,0.482569294067
4935,31.6279358875,3.00149821854,0.503715717693
4936,31.3428459779,2.9988813553,1.00467873249
4937,31.0534590577,2.99861963052,0.500963014795
4938,31.3097937782,2.49302652492,0.498195195309
4939,4.5,5.66665840275,1.50695857767
4940,33.2763680962,5.06169269447,1.49533707585
4941,33.8203012514,5.04551313014,1.4601706651
4942,24.7931600923,4.51199841176,0.505050643273
4943,8.18606993555,2.03922052001,0.499776921238
4944,8.46603239017,1.96517496866,0.999625127636
4945,33.3408132285,4.07778871941,1.5013266353
4946,33.0323853225,4.58407561466,1.49533707585
4947,31.9178960872,4.67929568835,0.503475595853
4948,30.4998684348,0.336192439104,1.50978144624
4949,23.098462783,0.552988434149,0.517040121384
4950,22.8373265119,0.950217740366,0.517040121384
4951,18.5140861007,0.428838354954,0.478582292442
4952,31.2381581078,3.47022893584,0.502585620082
4953,21,5.65028979008,1.47858229244
4954,14.7495946628,5.07851418992,1.49302869582
4955,14.194610133,4.92637527808,1.49977109638
4956,30.6115353363,3.23409153232,0.500963014795
4957,13.944610133,5.35938797998,1.49977109638
4958,13.694610133,4.92637527808,1.49977109638
4959,31.6210216097,3.48979796919,1.50371571769
4960,31.2381640688,3.47023910528,1.50258562008
4961,13.4999262606,5.56698729811,1.48608794656
4962,14.4993805889,5.56698729811,1.52249055904
4963,14.1939907219,5.35938797998,1.02226165543
4964,33.3438858532,4.07862294045,0.501326635301
4965,33.0354579472,4.5849098357,0.495337075852
4966,8.7378887616,5.46655128089,0.493864717311
4967,8.4878887616,5.46655128089,1.00082329498
4968,34.1022178652,2.26810997089,0.490193421953
4969,1.46749298924,3.03955698226,0.5
4970,1.46748325925,3.03972837474,1.5
4971,31.5852111456,2.55911935276,0.503715717693
4972,31.2670690363,2.05064765914,0.498195195309
4973,28.0235661436,2.74686344958,0.501026589591
4974,28.0396285994,3.32773821138,0.500595139391
4975,38.9912791035,3.24819904184,1.50014670184
4976,38.9724966961,3.80631793267,1.49825490639
4977,23.5018045923,0.337475897682,1.51391205344
4978,23.0137021489,4.76417323845,1.48387454603
4979,22.7072932738,4.36746164099,1.51789350229
4980,38.9913844677,2.75482739373,1.50014670184
4981,31.6625687554,4.98378919967,1.50347559585
4982,31.1060344791,4.96601646743,1.51644551893
4983,31.2771418181,4.48950635148,1.50258562008
4984,33.6625590804,2.58258841228,0.520530087071
4985,25.9069144081,4.49587474964,1.50000598305
4986,30.5,5.66655156516,1.52276367411
4987,22.401145292,2.50442756127,1.5127479165
4988,39.4220378226,2.75195493066,1.00068200737
4989,39.5693466451,2.50530055455,1.50053530553
4990,39.3992604352,2.1900326487,1.0004996594
4991,32.770983677,4.087527799,1.49859344439
4992,28.0136031014,2.72161037781,1.50102658959
4993,28.0296655573,3.30248513961,1.50059513939
4994,18.3105442216,5.05187169202,0.526039455967
4995,18.8403810374,5.05789462635,0.481473516839
4996,14.4619878961,5.58603927271,0.522490559041
4997,24.8443388456,5.49839360843,1.00309338867
4998,24.8380595098,5.02185602227,1.52451109623
4999,2.93819189804,3.68514565244,1.50114594911
5000,38.9900885982,3.24831184159,0.500146701843
5001,38.981407263,4.28952220845,1.49825490639
5002,39.4032554152,4.05885977575,1.49825490639
5003,32.7664654492,1.93228093244,0.503871624452
5004,31.3643537001,1.08716888097,1.01947466981
5005,31.4964139429,1.22860089197,0.503636937351
5006,30.9366585802,1.24156275234,0.515837732463
5007,31.0428184633,1.54247364871,1.01403292777
5008,31.174878706,1.68390565971,0.498195195309
5009,31.6025738259,1.52951178834,1.00183213266
5010,39.4220378226,3.00074088492,1.50014670184
5011,34.8342927927,1.55459512836,1.48217153596
5012,0.996817985345,1.75244392459,1.50000294839
5013,1.54643666172,1.61615575791,1.00000076947
5014,1.41494247073,1.37533917463,1.49999782108
5015,0.911712597425,1.23666122614,1.49651301942
5016,1.4613312738,1.10037305946,0.996510840507
5017,1.04320678842,1.47747780942,0.99651596781
5018,1.41494247073,1.37533917463,0.499997821082
5019,0.996817985346,1.75244392459,0.500002948386
5020,0.911712597426,1.23666122614,0.496513019425
5021,8.18641602471,2.0384744955,1.49977692124
5022,11.492223352,0.341767813408,0.486120460263
5023,2.93822108143,3.68461945736,0.501145949106
5024,2.38621944975,3.55041261443,0.500026688432
5025,31.5157115518,0.390043840466,0.47622935376
5026,31.1518291686,0.550065370671,0.992067086224
5027,31.5161815519,5.60995615953,0.490803141979
5028,31.1477762852,5.44612080491,1.00724866091
5029,20.7388666087,0.983576001685,0.482569294067
5030,20.1865190648,0.9616806458,0.510212785851
5031,33.6623215566,3.08205265488,0.520530087071
5032,33.8746362624,2.89804385793,1.02042484082
5033,38.9890251207,2.75074088492,0.500146701843
5034,38.9662477333,2.18881860296,0.499964353871
5035,4.31578095816,3.77675336759,0.529847248174
5036,24.8254974423,5.04510642443,0.524511096227
5037,22.5093314237,1.22536594436,0.504936872332
5038,22.6377302275,1.08602647265,1.02197699372
5039,23.0685267622,1.24531634001,0.517040121384
5040,22.8778800883,1.53620160748,1.01054333783
5041,22.3186847498,1.51625121184,0.998440088778
5042,20.9725948869,1.47930023997,1.48256929407
5043,33.2900968162,5.05678519325,0.495337075852
5044,33.8340299715,5.04060562892,0.460170665097
5045,7.76786930598,4.50825160059,1.50175923644
5046,8.18591281564,4.17377543678,1.53333498205
5047,39.5680507755,3.50124199975,0.520979801013
5048,39.4032554152,3.81253081883,1.01923470741
5049,32.7797771704,1.94602524397,1.50387162445
5050,1.72990624572,4.94908319048,0.5
5051,1.98285238895,5.37800938356,0.5
5052,2.2152765951,4.9309151004,0.5
5053,32.7740563017,4.08836202004,0.49859344439
5054,14.734487725,2.24253632215,1.5447733511
5055,21.2710432525,3.95866915128,1.51008782352
5056,21.6924810752,3.7406148446,1.51008782352
5057,20.8047559807,3.74650338396,1.55022357733
5058,21.2261938035,3.52844907729,1.55022357733
5059,14.7122019699,5.09756616452,0.493028695821
5060,19.4428278299,1.33758586974,0.510212785851
5061,19.6223596116,1.56047053878,1.00681928462
5062,31.6319275125,1.5371035103,1.50363693735
5063,23.0851952935,5.44949884391,1.48387454603
5064,22.8271594478,5.08178200697,1.48387454603
5065,1.98228057355,0.619525503973,0.499997821082
5066,1.73785221151,1.03572713547,0.499997821082
5067,19.007862891,2.65153441751,0.500916856676
5068,19.3762544172,2.18143640183,0.496606498767
5069,22.1948292109,3.79566789267,0.517893502294
5070,20.796737126,3.85825204058,0.550223577329
5071,19.9222490951,3.24457181479,1.50437559861
5072,19.8504808869,3.78664921065,1.48992008217
5073,2.95718918303,3.15767993768,0.47115158218
5074,37.8999320998,1.53185486255,0.990260893348
5075,37.7069816443,1.36041257648,0.485256363635
5076,37.5951208653,1.05097656873,0.99129138371
5077,21.7892674445,0.966050740396,1.50493687233
5078,21.2388666087,0.983576001685,1.48256929407
5079,22.4888637289,0.397229306218,0.478582292442
5080,22.848462783,0.552988434149,0.995622413826
5081,2.48242420615,5.55290571684,0.522763674107
5082,2.23285238895,5.37800938356,1.02276367411
5083,19.62088258,1.00388084042,1.51021278585
5084,19.6953434376,1.84103623604,1.49660649877
5085,19.370204062,1.50701549138,1.49660649877
5086,39.4220378226,3.25441192799,1.02112650286
5087,20.7388666087,0.983576001685,1.48256929407
5088,20.1865190648,0.9616806458,1.51021278585
5089,19.9272742923,2.75393101489,1.50437559861
5090,20.3487028008,3.52756335368,1.55022357733
5091,20.353727998,3.03692255378,1.55022357733
5092,31.7282360833,0.927147350767,0.503636937351
5093,30.8250948577,1.83296806261,0.498195195309
5094,23.0393261048,1.74576584042,1.49350321645
5095,17.8925241364,1.55480839092,1.00928784174
5096,22.4919641543,5.63228316306,1.47858229244
5097,22.8351952935,5.44949884391,0.962456838471
5098,1.72990624572,4.94908319048,1.5
5099,1.22745781526,5.09066984843,1.49633629944
5100,34.1553207645,2.82496541369,1.49989475375
5101,1.22745781526,5.09066984844,0.496336299442
5102,39.3992604352,1.93881860296,0.499964353871
5103,20.9706548236,1.48319535773,0.482569294067
5104,19.3100087706,2.56148533892,0.496606498767
5105,19.8524786735,3.79114065696,0.489920082175
5106,20.3507005874,3.53205479999,0.550223577329
5107,39.5692412809,3.50112919999,1.52097980101
5108,1.52087812426,1.91960970789,0.500002948386
5109,1.52087256332,1.91970592964,1.50000294839
5110,19.9242468816,3.2490632611,0.504375598607
5111,19.5724069826,2.53573360976,1.00098209737
5112,32.2155812815,1.80356376676,0.503871624452
5113,31.9221038913,1.32657959336,0.503636937351
5114,17.6210032594,1.5186236945,1.49988463527
5115,39.5669872981,2.50121404574,0.500535305529
5116,7.76267408248,4.51556669138,0.501759236441
5117,8.18071759214,4.18109052757,0.533334982052
5118,21.7542805419,4.22586673966,1.51008782352
5119,22.008428514,4.71787269103,1.50678427451
5120,22.1940482101,2.24292995682,1.49350321645
5121,19.6546936202,1.86043302784,0.496606498767
5122,35.6870156809,0.967389339878,0.502206895233
5123,35.1525126627,1.00077401778,0.482171535958
5124,1.93917973268,3.31043405626,0.500026688432
5125,31.6005686545,1.78188436109,0.498195195309
5126,33.6623215566,3.08205265488,1.52053008707
5127,22.2781311734,0.930267344722,0.504936872332
5128,31.7204921133,5.07384969668,0.503475595853
5129,31.7043105614,5.46389353715,0.994278737832
5130,31.0107343158,2.55624076474,0.500963014795
5131,31.060136491,4.43503880244,1.51644551893
5132,15.2493468984,5.51152689181,0.993837583002
5133,30.8732056856,2.24889070778,0.498195195309
5134,30.7796922137,2.01182632896,1.02187801992
5135,8.65512255883,2.18434751966,1.49977692124
5136,8.65492685243,2.18467577003,0.499776921238
5137,2.21653032873,4.93547796627,1.5
5138,1.98285238895,5.37800938356,1.5
5139,35.5,0.33814280495,1.50695857767
5140,35.1823690041,0.554595128357,0.989130113632
5141,35.1823690041,0.892737933307,1.48217153596
5142,34.9323690041,0.554595128357,1.48217153596
5143,14.7489752517,5.51152689181,1.01551925486
5144,31.7115845313,0.537103510301,0.979866291112
5145,1.7378515495,1.03573859044,1.49999782108
5146,1.98228057355,0.619525503973,1.49999782108
5147,6.92026924822,2.16552564229,0.5
5148,7.29294220724,1.80825141027,0.536601487351
5149,8.36593218178,5.65780744075,0.506958577674
5150,22.0580938317,4.05187556754,1.02798132581
5151,8.36165550294,5.65528517978,1.50695857767
5152,21.8143611254,1.82311077915,0.496023614208
5153,22.0829262631,1.33215532881,0.504936872332
5154,30.8977762852,5.44612080491,1.51644551893
5155,30.6527630244,0.550065370671,1.02561917871
5156,1.2346216762,0.897060641952,1.49651301942
5157,27.545870409,3.02520306796,1.5
5158,1.23462233821,0.897049186982,0.496513019425
5159,1.49705385678,5.57107380691,1.43301270189
5160,1.73285238895,5.37800938356,0.933012701892
5161,8.26072070456,4.70732932071,0.493864717311
5162,22.2834553855,5.49109427247,0.985366566951
5163,22.2754195398,5.12337743553,1.50678427451
5164,22.618650679,4.94059311637,0.990658820539
5165,6.92166945004,2.16185540818,1.5
5166,7.29434240906,1.80458117615,1.53660148735
5167,39.1074791675,4.78396885842,0.518173636347
5168,34.8716953012,1.48224364349,0.482171535958
5169,39.4220378226,3.00074088492,0.500146701843
5170,18.1206630086,0.862593779566,1.49988463527
5171,18.1272173144,0.525750701326,0.978466927708
5172,18.2687565167,1.1405872662,1.003503474
5173,31.4582581939,5.51989566252,1.49080314198
5174,10.0038509154,5.45772115843,1.4999999911
5175,19.5769803061,2.65356482185,0.504375598607
5176,22.2892674445,0.533038038504,0.983519164774
5177,31.6718673951,1.01386809112,1.50363693735
5178,1.49705385678,5.57107380691,0.433012701892
5179,6.81615519284,1.61025102099,0.5
5180,21.9745729918,3.24595408478,1.5127479165
5181,22.1919600803,3.79431376995,1.51789350229
5182,6.81755539466,1.60658078688,1.5
5183,1.50557097595,0.416213086467,1.43301270189
5184,1.73228057355,0.619525503973,0.933010522974
5185,31.3503321583,1.46917285886,1.49819519531
5186,30.9022991687,0.550065370671,1.51583773246
5187,31.1121120325,1.02682995149,1.51583773246
5188,2.75521939576,5.04937892877,0.512994777365
5189,22.8926037231,1.02949387664,1.51704012138
5190,23.098462783,0.552988434149,1.51704012138
5191,39.5781518478,4.4806624327,1.43301270189
5192,39.4032554152,4.30885977575,0.931267608287
5193,10.0038509154,5.45772115843,0.499999991098
5194,2.48367793978,5.5574685827,1.52276367411
5195,22.3334083846,1.009543481,1.50493687233
5196,22.5735582454,1.45971861583,1.49350321645
5197,22.2358665223,1.80280754694,1.49350321645
5198,4.92351463866,5.45327649562,1.50446919451
5199,1.50557163796,0.416201631496,0.433012701892
5200,8.26591592806,4.70001422992,1.49386471731
5201,39.5784665095,4.4902328022,0.433012701892
5202,11.9266025257,0.558649518962,1.49999994062
5203,8.69011337494,5.45714163003,1.50695857767
5204,31.4593428637,0.476764580822,1.47622935376
5205,17.8772173144,0.525750701326,0.499884635266
5206,18.1413034151,0.95458905628,0.499884635266
5207,22.5441409401,0.476505442494,1.47858229244
5208,13.1522427614,5.03801386941,0.494448266751
5209,13.1666892625,5.48447936014,0.980536213316
5210,2.77279518961,5.49647321193,1.03575845147
5211,19.7265484033,2.28180259487,1.49660649877
5212,22.9260939559,4.44194419093,0.483874546029
5213,11.0678766189,5.46509747922,1.49729539085
5214,30.7657226609,2.07765743202,0.523682824607
5215,4.92351463866,5.45327649562,0.504469194506
5216,22.4619622409,4.80576866701,1.50678427451
5217,0.497260787103,2.49796056874,0.500535305529
5218,0.564156088169,1.99663025394,0.500002948386
5219,0.564156088169,2.24784429968,1.00053825391
5220,22.9382087452,1.55298843415,1.51704012138
5221,5.74023642173,5.45303867089,1.00274998945
5222,5.46377309196,5.52296978455,1.50231952589
5223,5.17351463866,5.45327649562,1.0067887204
5224,39.1071645058,4.77439848892,1.51817363635
5225,22.2357462943,4.23221471358,0.517893502294
5226,38.2122707296,1.52222508736,1.48525636363
5227,27.5558334512,3.05045613973,0.5
5228,11.9266025257,0.558649518962,0.49999994062
5229,17.8772173144,0.525750701326,1.49988463527
5230,13.1667630019,5.05146665825,1.49444826675
5231,31.0085508988,3.43826802316,0.500963014795
5232,22.3122418038,4.54388151891,1.0246777768
5233,31.0721721498,1.55006537067,1.51583773246
5234,22.3275963256,5.01458882997,0.50678427451
5235,22.5729273584,4.57628180395,0.517893502294
5236,22.8793362335,4.97299340142,0.483874546029
5237,23.0851952935,5.44949884391,0.483874546029
5238,1.23040395848,5.51959604152,0.929349001334
5239,37.3247537111,0.973851482115,0.506035020075
5240,37.8570928089,0.973421211567,0.485256363635
5241,0.526456989,2.79046898746,1.00053530553
5242,17.976128493,1.33466970955,0.499884635266
5243,0.497260123707,2.4979721791,1.50053530553
5244,36.7813908837,0.525703419637,1.00835454597
5245,36.5087270598,0.51150538021,0.502319525891
5246,36.2168720223,0.521210450455,1.00452642112
5247,30.8090459003,2.01941805092,1.52368282461
5248,5.45624513114,5.49569224471,0.502319525891
5249,10.5123581967,5.55162667131,0.522763674107
5250,10.2538509154,5.45772115843,1.0227636652
5251,10.8178766189,5.46509747922,1.02005906495
5252,20.3867592196,3.98305886272,1.55022357733
5253,19.8818882445,2.04909921715,0.992044919167
5254,2.75647312939,5.05394179463,1.51299477736
5255,5.99023642173,5.45303867089,1.50043046356
5256,33.5115919114,5.57109322073,1.48628069438
5257,34.05870934,5.47441990941,1.4601706651
5258,33.80870934,5.47441990941,0.946451359473
5259,31.9620545314,0.537103510301,0.503636937351
5260,35.7168720223,0.859353255404,1.50220689523
5261,35.7168720223,0.521210450455,1.00916547291
5262,22.0501196122,2.00720666217,0.989526830654
5263,0.526456989,3.03925494171,1.5
5264,22.3230761238,1.78233046364,0.493503216446
5265,37.2813908837,0.525703419637,1.01299359775
5266,37.2681397366,0.856518185885,1.50603502007
5267,37.4867488528,0.330814766248,1.50695857767
5268,37.8137299815,0.525273149089,0.992214941309
5269,37.8004788344,0.856087915337,1.48525636363
5270,38.1563161189,1.4475792091,0.485256363635
5271,39.529012658,4.79373605622,0.951186338239
5272,35.4701436586,0.446178889423,0.506958577674
5273,34.9323690041,0.554595128357,0.482171535958
5274,35.2461770298,1.30655065298,1.48217153596
5275,21.7892674445,0.533038038504,1.01897664618
5276,21.4867004188,0.447478693583,0.51403977385
5277,21.2388666087,0.550563299792,0.996609067917
5278,1.22905070025,0.480847555486,0.929525721317
5279,25.0943388456,5.49839360843,0.524511096227
5280,37.7856945443,1.2732013144,1.48525636363
5281,11.0678766189,5.46509747922,0.497295390846
5282,19.9365190648,0.528667943907,0.510212785851
5283,37.0313908837,0.525703419637,0.506035020075
5284,22.0392674445,0.533038038504,0.504936872332
5285,22.2003978806,2.25550109743,0.493503216446
5286,36.2441210632,5.47777286935,1.0055485806
5287,36.5054946507,5.55567380355,1.50695857767
5288,36.8043226471,5.47519371992,1.00036001262
5289,38.0637299815,0.525273149089,1.48525636363
5290,22.5441409401,5.52349455751,0.478582292442
5291,36.507692511,0.453297042213,1.50231952589
5292,35.9668720223,0.521210450455,0.502206895233
5293,31.9543105614,5.46389353715,0.503475595853
5294,0.564156088169,1.99663025394,1.50000294839
5295,0.526456989,3.03925494171,0.5
5296,10.5123581967,5.5516266713,1.52276367411
5297,33.2647761847,5.49059947374,0.981617770228
5298,20.2367555541,2.26729662228,1.4954384204
5299,18.0705287995,1.27763863176,1.49988463527
5300,20.7388666087,0.550563299792,0.961151586509
5301,20.5,0.433012701892,1.47858229244
5302,20.1865190648,0.528667943907,0.988795078293
5303,30.8874399625,1.75454888976,1.49819519531
5304,37.0543226471,5.47519371992,1.49340143495
5305,34.1503744031,2.81652696046,0.499894753753
5306,32.2043105614,5.46389353715,1.02623926996
5307,32.5172431616,5.58153759104,0.522763674107
5308,32.7647761847,5.49059947374,1.01810074996
5309,36.5106949837,5.55615046098,0.506958577674
5310,35.9668720223,0.521210450455,1.50220689523
5311,37.0313908837,0.525703419637,1.50603502007
5312,21.5,0.433012701892,1.51403977385
5313,20.9888666087,0.550563299792,1.48256929407
5314,18.0215243263,5.5018068786,0.526039455967
5315,5.99023642173,5.45303867089,0.500430463562
5316,37.0543226471,5.47519371992,0.493401434947
5317,31.9543105614,5.46389353715,1.50347559585
5318,25.0943388456,5.49839360843,1.52451109623
5319,20.9888666087,0.550563299792,0.482569294067
5320,25.0056928988,0.519260363529,1.49601163604
5321,35.9941210632,5.47777286935,0.49859000293
5322,0.564156088169,1.74663025394,0.948844216889
5323,20.5,0.433012701892,0.478582292442
5324,0.432661897176,1.50581367065,1.4488412685
5325,31.9620545314,0.537103510301,1.50363693735
5326,19.7369986557,2.30643039549,0.496606498767
5327,37.5433628274,0.448148062478,0.506958577674
5328,12.9167630019,5.48447936014,1.49444826675
5329,22.0392674445,0.533038038504,1.50493687233
5330,22.2537595469,4.27956566501,1.51789350229
5331,0.479050700249,1.23084755549,0.945354287928
5332,32.5,5.56698729811,1.52276367411
5333,12.9167630019,5.48447936014,0.494448266751
5334,20.7922998526,4.25704103626,1.49325725532
5335,0.432661897177,1.50581367065,0.448841268503
5336,14.9995946628,5.51152689181,1.49302869582
5337,18.490867483,5.67472213063,1.47858229244
5338,18.8013611421,5.50782981293,0.960055809281
5339,18.792228625,5.18255194356,1.48147351684
5340,19.0513611421,5.50782981293,1.48147351684
5341,38.0637299815,0.525273149089,0.485256363635
5342,35.9941210632,5.47777286935,1.49859000293
5343,19.9365190648,0.528667943907,1.51021278585
5344,18.2623918092,5.17652900923,1.52603945597
5345,18.2715243263,5.5018068786,1.00462174841
5346,22.0334553855,5.49109427247,1.50678427451
5347,25.0056928988,0.519260363529,0.496011636042
5348,3.02279518961,5.49647321193,0.512994777365
5349,3.02279518961,5.49647321193,1.51299477736
5350,22.0334553855,5.49109427247,0.50678427451
5351,0.366025403784,0.69400511638,1.63660538832
5352,0.479050700249,0.980847555486,1.49651301942
5353,0.479050700249,0.808827268081,1.13311840774
5354,0.845076104033,0.84687295927,1.49651301942
5355,39.1629872542,5.17771065243,0.518173636347
5356,39.029012658,5.54373605622,0.518173636347
5357,18.5390198953,5.55006481342,0.478582292442
5358,0.694751236864,0.366025403784,1.63315885842
5359,0.979050700249,0.480847555486,1.49651301942
5360,0.807776533329,0.480847555486,1.12967187784
5361,0.366025403784,5.30524876314,1.63315885842
5362,0.846429362264,5.15357063774,1.49633629944
5363,0.480403958479,5.19087020844,1.12949515786
5364,0.480403958479,5.01959604152,1.49633629944
5365,0.694751236864,5.63397459622,1.63315885842
5366,0.980403958479,5.51959604152,1.49633629944
5367,0.809129791559,5.51959604152,1.12949515786
5368,33.0147761847,5.49059947374,1.49533707585
5369,39.2002868249,5.54373605622,0.885014777929
5370,0.366025403784,0.662534624548,0.297271153848
5371,0.366025403784,1.11602540378,0.448841268503
5372,0.479050700249,0.777356776249,0.793784173272
5373,0.845076104033,0.84687295927,0.496513019425
5374,34.05870934,5.47441990941,0.460170665097
5375,33.0147761847,5.49059947374,0.495337075852
5376,39.3052487631,5.63397459622,0.366841141582
5377,39.529012658,5.04373605622,1.51817363635
5378,33.5253206314,5.56618571951,0.486280694376
5379,39.529012658,5.21501022314,1.15133249477
5380,18.0215243263,5.5018068786,1.52603945597
5381,19.0513611421,5.50782981293,0.481473516839
5382,39.1629872542,5.17771065243,1.51817363635
5383,14.9995946628,5.51152689181,0.493028695821
5384,39.6339745962,4.88397459622,0.433012701892
5385,39.6339745962,5.34406852935,0.288991032403
5386,39.529012658,5.25382998936,0.807164668751
5387,1.11602540378,0.366025403784,0.433012701892
5388,0.655931470646,0.366025403784,0.288991032403
5389,0.768956767111,0.480847555486,0.785504051828
5390,0.655931470646,5.63397459622,0.288991032403
5391,1.11602540378,5.63397459622,0.433012701892
5392,0.846429362264,5.15357063774,0.496336299442
5393,0.770310025341,5.51959604152,0.785327331846
5394,0.366025403784,4.88397459622,0.433012701892
5395,0.366025403784,5.34406852935,0.288991032403
5396,0.480403958479,5.22968997466,0.785327331846
5397,39.3440685294,5.63397459622,1.7110089676
5398,39.2391065912,5.54373605622,1.22918260394
5399,39.029012658,5.54373605622,1.51817363635
5400,39.6339745962,5.30524876314,1.63315885842
5401,0.32872583308,5.71009393314,0.922149890822
5402,0.289906066862,5.71009393314,0.577982064807
5403,0.32872583308,0.296509220764,0.930430012266
5404,0.289906066862,0.296509220764,0.586262186251
5405,0.32872583308,5.67127416692,1.26631771684
5406,0.32872583308,0.327979712595,1.26976424673
5407,39.6712741669,5.71009393314,0.655832173985
5408,39.7100939331,5.67127416692,1.34416782601
5409,39.6712741669,5.67127416692,1
5410,15.1766526578,2.50122140695,1.50008080671
5411,9.05725743541,5.65006264042,1.50695857767
*ELEMENT,TYPE=C3D10,ELSET=SOLID
61,2215,3090,1011,3092,3214,3215,3216,3217,3219,3218
62,3095,3133,1028,3146,3220,3221,3222,3223,3225,3224
63,2215,3092,1011,3115,3217,3218,3216,3226,3228,3227
64,1011,3090,2215,3138,3215,3214,3216,3229,3231,3230
65,2164,1129,3133,3146,3232,3233,3234,3235,3236,3225
66,2215,3115,1011,3163,3226,3227,3216,3237,3239,3238
67,2133,3110,3108,3170,3240,3241,3242,3243,3245,3244
68,2164,3114,1129,3146,3246,3247,3232,3235,3248,3236
69,1011,3138,2215,3152,3229,3230,3216,3249,3251,3250
70,2215,1011,3152,3163,3216,3249,3250,3237,3238,3252
71,1062,3107,3094,3160,3253,3254,3255,3256,3258,3257
72,431,1203,510,3181,3259,3260,3261,3262,3264,3263
73,3108,3110,1068,3170,3241,3265,3266,3244,3245,3267
74,991,3102,472,3162,3268,3269,3270,3271,3273,3272
75,2114,3091,3099,3126,3274,3275,3276,3277,3279,3278
76,3127,3164,2042,3195,3280,3281,3282,3283,3285,3284
77,2052,472,3102,3162,3286,3269,3287,3288,3272,3273
78,431,3137,1203,3181,3289,3290,3259,3262,3291,3264
79,1055,2114,3094,3098,3292,3293,3294,3295,3297,3296
80,3108,3110,2133,3204,3241,3240,3242,3298,3300,3299
81,1055,3094,2114,3127,3294,3293,3292,3301,3303,3302
82,2123,3094,2126,3160,3304,3305,2948,3306,3257,3307
83,1109,3117,3171,3189,3308,3309,3310,3311,3313,3312
84,2222,1138,3119,3133,3314,3315,3316,3317,3319,3318
85,2142,3155,3191,3197,3320,3321,3322,3323,3325,3324
86,1068,3110,3108,3204,3265,3241,3266,3326,3300,3298
87,1055,2114,3126,3127,3292,3277,3327,3301,3302,3328
88,2114,3098,1055,3099,3297,3295,3292,3276,3330,3329
89,2185,3171,3117,3189,3331,3309,3332,3333,3312,3313
90,1165,3119,1138,3133,3334,3315,1627,3335,3318,3319
91,2114,3099,1055,3126,3276,3329,3292,3277,3278,3327
92,1121,3164,3127,3195,3336,3280,3337,3338,3285,3283
93,431,510,2267,3181,3261,3339,3340,3262,3263,3341
94,1078,3191,3155,3197,3342,3321,3343,3344,3324,3325
95,2087,3133,3095,3146,3345,3220,3346,3347,3225,3223
96,751,2042,3164,3195,3348,3281,3349,3350,3284,3285
97,431,2267,3137,3181,3340,3351,3289,3262,3341,3291
98,1062,1124,3094,3107,1890,3352,3255,3253,3353,3254
99,2222,3119,2115,3133,3316,3354,2935,3317,3318,3355
100,2217,3188,3178,3205,3356,3357,3358,3359,3361,3360
101,1055,3099,3091,3126,3329,3275,3362,3327,3278,3279
102,3178,3188,1155,3205,3357,3363,3364,3360,3361,3365
103,1033,3119,1165,3132,3366,3334,1783,3367,3369,3368
104,2123,2125,2126,3094,2945,2949,2948,3304,3370,3305
105,3149,3155,2144,3197,3371,3372,3373,3374,3325,3375
106,2070,3090,1111,3100,3376,3377,3378,3379,3381,3380
107,1111,3090,2070,3092,3377,3376,3378,3382,3219,3383
108,1121,751,3164,3195,3384,3349,3336,3338,3350,3285
109,3118,3119,1033,3189,3385,3366,3386,3387,3389,3388
110,2070,1111,3092,3140,3378,3382,3383,3390,3392,3391
111,2070,3100,1111,3180,3379,3380,3378,3393,3395,3394
112,971,2032,3113,3139,3396,3397,3398,3399,3401,3400
113,971,3124,2032,3139,3402,3403,3396,3399,3404,3401
114,997,3109,2205,3173,3405,3406,3407,3408,3410,3409
115,1111,3140,2070,3141,3392,3390,3378,3411,3413,3412
116,2133,2161,3110,3170,2985,3414,3240,3243,3415,3245
117,2093,3119,3118,3189,3416,3385,3417,3418,3389,3387
118,1080,3155,3149,3197,3419,3371,3420,3421,3325,3374
119,3119,3132,1033,3189,3369,3367,3366,3389,3422,3388
120,1154,3180,3100,3212,3423,3395,3424,3425,3427,3426
121,1129,1028,3133,3146,1768,3221,3233,3236,3224,3225
122,2115,3119,2093,3132,3354,3416,2842,3428,3369,3429
123,2070,1111,3141,3180,3378,3411,3412,3393,3394,3430
124,2164,3133,2087,3146,3234,3345,2816,3235,3225,3347
125,1035,3171,2094,3189,3431,3432,3433,3434,3312,3435
126,2093,3132,3119,3189,3429,3369,3416,3418,3422,3389
127,2133,3110,2161,3204,3240,3414,2985,3299,3300,3436
128,3086,3102,1197,3162,3437,3438,3439,3440,3273,3441
129,2260,3102,3086,3162,3442,3437,3443,3444,3273,3440
130,3100,3180,2178,3212,3395,3445,3446,3426,3427,3447
131,1097,1068,3110,3170,1926,3265,3448,3449,3267,3245
132,1109,3171,1035,3189,3310,3431,1788,3311,3312,3434
133,2243,3095,2087,3133,3450,3346,2815,3451,3220,3345
134,1097,3110,1068,3204,3448,3265,1926,3452,3300,3326
135,1059,1062,3094,3160,1888,3255,3453,3454,3256,3257
136,2164,2243,2087,3133,2591,2815,2816,3234,3451,3345
137,1035,2094,3118,3189,3433,3455,3456,3434,3435,3387
138,2042,2249,727,3164,2476,3457,3458,3281,3460,3459
139,1035,3093,2094,3171,3461,3462,3433,3431,3463,3432
140,1129,2164,497,3114,3232,3464,3465,3247,3246,3466
141,510,432,511,1203,3467,3468,526,3260,3470,3469
142,511,510,1203,3181,526,3260,3469,3471,3263,3264
143,2142,2144,3155,3197,3024,3372,3320,3323,3375,3325
144,1062,3107,3160,3185,3253,3258,3256,3472,3474,3473
145,2094,3171,2185,3189,3432,3331,2838,3435,3312,3333
146,2222,1138,496,3119,3314,3475,3476,3316,3315,3477
147,1035,2094,3093,3118,3433,3462,3461,3456,3455,3478
148,510,431,432,1203,3261,446,3467,3260,3259,3470
149,2222,496,1138,3133,3476,3475,3314,3317,3479,3319
150,1059,1062,1124,3094,1888,1890,1884,3453,3255,3352
151,1178,3103,3153,3155,3480,3481,3482,3483,3485,3484
152,972,3136,476,3184,3486,3487,3488,3489,3491,3490
153,751,2042,727,3164,3348,3458,826,3349,3281,3459
154,3160,3161,2182,3183,3492,3493,3494,3495,3497,3496
155,1181,1028,3095,3133,1766,3222,3498,3499,3221,3220
156,2033,476,3136,3184,3500,3487,3501,3502,3490,3491
157,1134,477,3107,3185,3503,3504,3505,3506,3507,3474
158,1183,3142,3109,3173,3508,3509,3510,3511,3512,3410
159,1080,1078,3155,3197,1966,3343,3419,3421,3344,3325
160,971,2032,493,3113,3396,3513,3514,3398,3397,3515
161,1116,3161,3160,3183,3516,3492,3517,3518,3497,3495
162,2056,3141,3140,3186,3519,3413,3520,3521,3523,3522
163,2032,971,493,3124,3396,3514,3513,3403,3402,3524
164,2205,997,733,3109,3407,3525,3526,3406,3405,3527
165,1183,3109,997,3173,3510,3405,1639,3511,3410,3408
166,2197,3107,477,3185,3528,3504,3529,3530,3474,3507
167,1035,3118,1033,3189,3456,3386,1784,3434,3387,3388
168,2033,3136,3105,3184,3501,3531,3532,3502,3491,3533
169,972,3105,3136,3184,3534,3531,3486,3489,3533,3491
170,2238,3153,3103,3155,3535,3481,3536,3537,3484,3485
171,1134,3184,477,3185,3538,3539,3503,3506,3540,3507
172,733,997,2205,3173,3525,3407,3526,3541,3408,3409
173,1121,751,727,3164,3384,826,3542,3336,3349,3459
174,3109,3142,2242,3173,3509,3543,3544,3410,3512,3545
175,3086,3097,2151,3162,3546,3547,3548,3440,3550,3549
176,1087,3097,3086,3162,3551,3546,3552,3553,3550,3440
177,2197,477,3184,3185,3529,3539,3554,3530,3507,3540
178,1181,1129,1028,3133,1534,1768,1766,3499,3233,3221
179,3167,3178,2217,3188,3555,3358,3556,3557,3357,3356
180,1155,3178,3167,3188,3364,3555,3558,3363,3357,3557
181,3100,3101,1154,3212,3559,3560,3424,3426,3561,3425
182,382,3188,2217,3205,3562,3356,3563,3564,3361,3359
183,2093,3118,2094,3189,3417,3455,2836,3418,3387,3435
184,1129,497,2164,3133,3465,3464,3232,3233,3565,3234
185,2042,3127,2124,3164,3282,3566,2617,3281,3280,3567
186,1155,3188,382,3205,3363,3562,3568,3365,3361,3564
187,1121,1191,3127,3164,1603,3569,3337,3336,3570,3280
188,3135,3160,2182,3183,3571,3494,3572,3573,3495,3496
189,2205,3109,2242,3173,3406,3544,2662,3409,3410,3545
190,1040,3118,3131,3193,3574,3575,3576,3577,3579,3578
191,1116,3160,3135,3183,3517,3571,3580,3518,3495,3573
192,2056,749,3141,3186,3581,3582,3519,3521,3583,3523
193,2178,3101,3100,3212,3584,3559,3446,3447,3561,3426
194,2133,3108,3084,3170,3242,3585,3586,3243,3244,3587
195,989,1121,727,3164,1417,3542,3588,3589,3336,3459
196,2052,3102,2260,3162,3287,3442,2676,3288,3273,3444
197,991,1197,3102,3162,1610,3438,3268,3271,3441,3273
198,428,1203,431,3137,3590,3259,463,3591,3290,3289
199,3084,3108,1068,3170,3585,3266,3592,3587,3244,3267
200,738,3180,1154,3212,3593,3423,3594,3595,3427,3425
201,1040,3118,3093,3131,3574,3478,3596,3576,3575,3597
202,2099,3131,3118,3193,3598,3575,3599,3600,3578,3579
203,972,1171,3105,3184,1504,3601,3534,3489,3602,3533
204,2033,3105,2233,3184,3532,3603,2563,3502,3533,3604
205,2052,472,2192,3102,3286,3605,2320,3287,3269,3606
206,991,490,472,3102,3607,538,3270,3268,3608,3269
207,3125,3131,2163,3193,3609,3610,3611,3612,3578,3613
208,1000,3178,1155,3205,3614,3364,1235,3615,3360,3365
209,2217,3178,2059,3205,3358,3616,2294,3359,3360,3617
210,1067,3084,3105,3161,3618,3619,3620,3621,3623,3622
211,3140,3141,1103,3186,3413,3624,3625,3522,3523,3626
212,2260,3086,2151,3162,3443,3548,3055,3444,3440,3549
213,1067,3108,3084,3161,3627,3585,3618,3621,3628,3623
214,1197,1087,3086,3162,1997,3552,3439,3441,3553,3440
215,738,2178,3180,3212,3629,3445,3593,3595,3447,3427
216,1033,3118,1036,3119,3386,3630,1786,3366,3385,3631
217,3093,3118,2099,3131,3478,3599,3632,3597,3575,3598
218,976,3131,3125,3193,3633,3609,3634,3635,3578,3612
219,1071,3084,3096,3166,3636,3637,3638,3639,3641,3640
220,991,1117,490,3102,1261,3642,3607,3268,3643,3608
221,2132,3105,3084,3161,3644,3619,3645,3646,3622,3623
222,432,431,428,1203,446,463,449,3470,3259,3590
223,2132,3084,3108,3161,3645,3585,3647,3646,3623,3628
224,2169,2161,3110,3204,2988,3414,3648,3649,3436,3300
225,1178,3153,1083,3155,3482,3650,1988,3483,3484,3651
226,1165,1138,1032,3133,1627,1531,1782,3335,3319,3652
227,2065,3085,3090,3100,3653,3654,3655,3656,3657,3381
228,2065,3090,3085,3138,3655,3654,3653,3658,3231,3659
229,2136,3096,3084,3166,3660,3637,3661,3662,3640,3641
230,2042,2124,2249,3164,2617,2622,2476,3281,3567,3460
231,475,1098,3113,3136,3663,3664,3665,3666,3668,3667
232,1047,3121,3122,3211,3669,3670,3671,3672,3674,3673
233,3104,3177,2030,3190,3675,3676,3677,3678,3680,3679
234,511,500,510,3181,641,719,526,3471,3681,3263
235,2222,2115,2181,3133,2935,2843,2593,3317,3355,3682
236,740,3104,2030,3190,3683,3677,3684,3685,3678,3679
237,1099,3110,1097,3204,3686,3448,1927,3687,3300,3452
238,2075,3140,3129,3186,3688,3689,3690,3691,3522,3692
239,969,3177,3104,3190,3693,3675,3694,3695,3680,3678
240,1103,3141,749,3186,3624,3582,3696,3626,3523,3583
241,2169,2133,2161,3204,2987,2985,2988,3649,3299,3436
242,492,3124,1162,3192,3697,3698,3699,3700,3702,3701
243,1047,3112,3121,3211,3703,3704,3669,3672,3705,3674
244,475,3113,2166,3136,3665,3706,3707,3666,3667,3708
245,2123,3135,3094,3160,3709,3710,3304,3306,3571,3257
246,1015,3129,3140,3186,3711,3689,3712,3713,3692,3522
247,2163,482,3125,3193,3714,3715,3611,3613,3716,3612
248,740,969,3104,3190,3717,3694,3683,3685,3695,3678
249,2224,3124,492,3192,3718,3697,3719,3720,3702,3700
250,475,2166,2254,3136,3707,2341,3721,3666,3708,3722
251,2095,3118,2093,3119,3723,3417,2840,3724,3385,3416
252,1133,972,476,3184,1288,3488,3725,3726,3489,3490
253,3134,3198,2259,3213,3727,3728,3729,3730,3732,3731
254,2238,2147,3153,3155,3048,3733,3535,3537,3734,3484
255,1197,3086,1090,3102,3439,3735,2003,3438,3437,3736
256,2154,3086,2260,3102,3737,3443,3062,3738,3437,3442
257,1076,3096,3089,3197,3739,3740,3741,3742,3744,3743
258,976,3125,482,3193,3634,3715,3745,3635,3612,3716
259,3089,3096,2140,3197,3740,3746,3747,3743,3744,3748
260,746,2049,3109,3120,3749,3750,3751,3752,3754,3753
261,740,969,1140,3104,3717,1376,3755,3683,3694,3756
262,749,2261,2056,3141,3757,2530,3581,3582,3758,3519
263,2101,3198,3087,3213,3759,3760,3761,3762,3732,3763
264,2106,3122,3121,3211,3764,3670,3765,3766,3673,3674
265,1124,3098,3094,3107,3767,3296,3352,3353,3768,3254
266,1121,989,1191,3164,1417,1601,1603,3336,3589,3570
267,3094,3098,2125,3107,3296,3769,3370,3254,3768,3770
268,2185,3117,2092,3189,3332,3771,2837,3333,3313,3772
269,2196,476,2033,3184,3773,3500,2347,3774,3490,3502
270,2182,3161,3108,3183,3493,3628,3775,3496,3497,3776
271,382,2217,384,3205,3563,3777,413,3564,3359,3778
272,2106,3121,3112,3211,3765,3704,3779,3766,3674,3705
273,1141,3130,752,3202,3780,3781,3782,3783,3785,3784
274,1116,3108,3161,3183,3786,3628,3516,3518,3776,3497
275,746,3109,1123,3120,3751,3787,3788,3752,3753,3789
276,1099,1097,1068,3204,1927,1926,1928,3687,3452,3326
277,511,1203,500,3181,3469,3790,641,3471,3264,3681
278,740,1140,721,3104,3755,3791,787,3683,3756,3792
279,2192,472,490,3102,3605,538,3793,3606,3269,3608
280,3134,3144,2259,3198,3794,3795,3729,3727,3796,3728
281,3109,3120,2119,3159,3753,3797,3798,3799,3801,3800
282,1107,3198,3134,3213,3802,3727,3803,3804,3732,3730
283,1015,3140,3129,3168,3712,3689,3711,3805,3807,3806
284,1178,3103,1149,3153,3480,3808,1597,3482,3481,3809
285,1071,3096,3084,3170,3638,3637,3636,3810,3811,3587
286,3084,3096,2136,3170,3637,3660,3661,3587,3811,3812
287,1109,1034,3117,3189,1789,3813,3308,3311,3814,3313
288,752,3130,2046,3202,3781,3815,3816,3784,3785,3817
289,494,475,2254,3136,559,3721,3818,3819,3666,3722
290,3092,3115,2073,3168,3228,3820,3821,3822,3824,3823
291,2168,3165,3126,3202,3825,3826,3827,3828,3830,3829
292,2119,3159,3120,3207,3800,3801,3797,3831,3833,3832
293,2204,3117,732,3173,3834,3835,3836,3837,3839,3838
294,2075,3129,3140,3168,3690,3689,3688,3840,3806,3807
295,1196,3120,3109,3159,3841,3753,3842,3843,3801,3799
296,1162,3150,492,3192,3844,3845,3699,3701,3846,3700
297,2259,3198,2101,3213,3728,3759,2875,3731,3732,3762
298,2211,498,3172,3201,3847,3848,3849,3850,3852,3851
299,476,495,1133,3184,565,3853,3725,3490,3854,3726
300,1007,3090,3085,3100,3855,3654,3856,3857,3381,3657
301,1107,1042,3198,3213,1819,3858,3802,3804,3859,3732
302,3085,3090,1007,3138,3654,3855,3856,3659,3231,3860
303,492,3150,2224,3192,3845,3861,3719,3700,3846,3720
304,732,3117,1142,3173,3835,3862,3863,3838,3839,3864
305,1196,3120,3159,3207,3841,3801,3843,3865,3832,3833
306,1035,1036,1033,3118,1787,1786,1784,3456,3630,3386
307,2181,2115,2093,3132,2843,2842,2830,3866,3428,3429
308,471,3102,998,3174,3867,3868,3869,3870,3872,3871
309,384,1000,1155,3205,3873,1235,3874,3778,3615,3365
310,1079,1080,3149,3197,1965,3420,3875,3876,3421,3374
311,2190,3103,2238,3153,3877,3536,2673,3878,3481,3535
312,2260,2154,2151,3086,3062,3061,3055,3443,3737,3548
313,2111,3091,3126,3165,3879,3279,3880,3881,3882,3826
314,2089,3095,3142,3159,3883,3884,3885,3886,3888,3887
315,1090,1197,1087,3086,2003,1997,2001,3735,3439,3552
316,722,3103,1119,3156,3889,3890,3891,3892,3894,3893
317,1033,1165,1032,3132,1783,1782,1777,3367,3368,3895
318,1186,1011,3115,3163,1695,3227,3896,3897,3238,3239
319,2217,2059,384,3205,2294,3898,3777,3359,3617,3778
320,498,1159,3172,3201,3899,3900,3848,3852,3901,3851
321,491,3150,1132,3162,3902,3903,3904,3905,3907,3906
322,2195,3150,491,3162,3908,3902,3909,3910,3907,3905
323,1083,3153,3097,3155,3650,3911,3912,3651,3484,3913
324,1095,3167,1155,3178,3914,3558,1657,3915,3555,3364
325,2159,2217,3167,3178,2716,3556,3916,3917,3358,3555
326,744,3110,1099,3204,3918,3686,3919,3920,3300,3687
327,2056,736,749,3186,3921,880,3581,3521,3922,3583
328,1040,1182,3118,3193,1524,3923,3574,3577,3924,3579
329,2144,2143,3149,3197,3025,3925,3373,3375,3926,3374
330,981,734,1123,3120,3927,3928,1456,3929,3930,3789
331,2057,3102,471,3174,3931,3867,3932,3933,3872,3870
332,1071,3096,1073,3166,3638,3934,1934,3639,3640,3935
333,1137,482,976,3125,3936,3745,1321,3937,3715,3634
334,2092,3117,3173,3189,3771,3839,3938,3772,3313,3939
335,2169,3110,744,3204,3648,3918,3940,3649,3300,3920
336,2073,3140,3092,3168,3941,3391,3821,3823,3807,3822
337,1030,3142,3095,3159,3942,3884,3943,3944,3887,3888
338,3096,3113,1073,3166,3945,3946,3934,3640,3947,3935
339,1137,504,482,3125,3948,598,3936,3937,3949,3715
340,476,2196,495,3184,3773,3950,565,3490,3774,3854
341,1042,3087,3198,3213,3951,3760,3858,3859,3763,3732
342,1059,3094,3135,3160,3453,3710,3952,3454,3257,3571
343,3097,3153,2147,3155,3911,3733,3953,3913,3484,3734
344,722,2194,3103,3156,3954,3955,3889,3892,3956,3894
345,3126,3165,1052,3202,3826,3957,3958,3829,3830,3959
346,1052,3126,3091,3165,3958,3279,3960,3957,3826,3882
347,2133,3084,2134,3170,3586,3961,2980,3243,3587,3962
348,2049,2205,746,3109,2512,3963,3749,3750,3406,3751
349,3089,3191,1076,3197,3964,3965,3741,3743,3324,3742
350,2140,3191,3089,3197,3966,3964,3747,3748,3324,3743
351,750,2178,2252,3180,3967,2539,3968,3969,3445,3970
352,2098,3093,3131,3198,3971,3597,3972,3973,3975,3974
353,2111,3126,2168,3165,3880,3827,2919,3881,3826,3825
354,744,1190,1099,3110,3976,1402,3919,3918,3977,3686
355,2228,3130,3165,3202,3978,3979,3980,3981,3785,3830
356,1129,3114,1195,3146,3247,3982,1628,3236,3248,3983
357,733,997,746,3109,3525,3984,862,3527,3405,3751
358,750,1154,738,3180,3985,3594,889,3969,3423,3593
359,2089,3142,3109,3159,3885,3509,3986,3886,3887,3799
360,2220,492,2224,3124,3987,3719,2332,3988,3697,3718
361,2111,3165,2168,3202,3881,3825,2919,3989,3830,3828
362,1128,506,3119,3193,3990,3991,3992,3993,3995,3994
363,2170,3140,2056,3141,3996,3520,2697,3997,3413,3519
364,1071,1070,3084,3166,1929,3998,3636,3639,3999,3641
365,1162,492,1160,3124,3699,4000,1273,3698,3697,4001
366,1069,3084,1068,3170,4002,3592,1921,4003,3587,3267
367,1103,1199,749,3141,1471,4004,3696,3624,4005,3582
368,3103,3104,1149,3153,4006,4007,3808,3481,4008,3809
369,2037,3119,506,3193,4009,3991,4010,4011,3994,3995
370,3086,3102,2154,3196,3437,3738,3737,4012,4014,4013
371,2137,3113,3096,3166,4015,3945,4016,4017,3947,3640
372,1090,3102,3086,3196,3736,3437,3735,4018,4014,4012
373,1034,3173,3117,3189,4019,3839,3813,3814,3939,3313
374,2183,3127,3094,3135,4020,3303,4021,4022,4023,3710
375,1134,477,508,3107,3503,571,4024,3505,3504,4025
376,1155,382,384,3205,3568,413,3874,3365,3564,3778
377,2185,2092,2094,3189,2837,2835,2838,3333,3772,3435
378,428,431,2267,3137,463,3340,4026,3591,3289,3351
379,1203,3137,1005,3181,3290,4027,1239,3264,3291,4028
380,744,2169,2253,3110,3940,2461,4029,3918,3648,4030
381,2205,733,746,3109,3526,862,3963,3406,3527,3751
382,2150,2151,3097,3162,3050,3547,4031,4032,3549,3550
383,2267,2219,3137,3181,2298,4033,3351,3341,4034,3291
384,1086,3097,1087,3162,4035,3551,1990,4036,3550,3553
385,971,493,1098,3113,3514,4037,1279,3398,3515,3664
386,490,2057,2192,3102,4038,2317,3793,3608,3931,3606
387,1141,729,752,3130,4039,835,3782,3780,4040,3781
388,722,1119,982,3156,3891,1385,4041,3892,3893,4042
389,1109,1035,1034,3189,1788,1785,1789,3311,3434,3814
390,2075,3129,2225,3186,3690,4043,2700,3691,3692,4044
391,1064,3161,3184,3185,4045,4046,4047,4048,4049,3540
392,1154,750,1202,3180,3985,4050,1480,3423,3969,4051
393,2171,2046,3130,3202,2485,3815,4052,4053,3817,3785
394,1187,3126,1052,3202,4054,3958,1515,4055,3829,3959
395,997,1123,746,3109,1453,3788,3984,3405,3787,3751
396,2092,3117,2227,3173,3771,4056,2832,3938,3839,4057
397,729,1141,990,3130,4039,1426,4058,4040,3780,4059
398,753,2237,3130,3157,4060,4061,4062,4063,4065,4064
399,473,491,2031,3150,544,4066,4067,4068,3902,4069
400,477,2197,508,3107,3529,4070,571,3504,3528,4025
401,490,998,471,3102,4071,3869,535,3608,3868,3867
402,743,3088,2263,3203,4072,4073,4074,4075,4077,4076
403,2137,3096,2136,3166,4016,3660,2993,4017,3640,3662
404,2098,3131,3087,3198,3972,4078,4079,3973,3974,3760
405,1178,1149,1083,3153,1597,1987,1988,3482,3809,3650
406,473,970,491,3150,4080,4081,544,4068,4082,3902
407,2093,2095,2094,3118,2840,2839,2836,3417,3723,3455
408,2219,428,2267,3137,4083,4026,2298,4033,3591,3351
409,2204,732,756,3173,3836,856,4084,3837,3838,4085
410,1192,754,3134,3144,4086,4087,4088,4089,4090,3794
411,1064,3161,3105,3184,4045,3622,4091,4047,4046,3533
412,1011,1193,3138,3152,1685,4092,3229,3249,4093,3251
413,2099,3118,2244,3193,3599,4094,2855,3600,3579,4095
414,490,1117,998,3102,3642,1258,4071,3608,3643,3868
415,1030,3109,3142,3159,4096,3509,3942,3944,3799,3887
416,490,471,2057,3102,535,3932,4038,3608,3867,3931
417,2208,3089,3088,3170,4097,4098,4099,4100,4102,4101
418,3088,3089,1131,3170,4098,4103,4104,4101,4102,4105
419,2190,3104,3103,3153,4106,4006,3877,3878,4008,3481
420,2189,3155,3103,3156,4107,3485,4108,4109,4110,3894
421,1107,3144,3134,3198,4111,3794,3803,3802,3796,3727
422,1039,3131,3093,3198,4112,3597,4113,4114,3974,3975
423,474,1160,492,3124,4115,4000,550,4116,4001,3697
424,2220,474,492,3124,4117,550,3987,3988,4116,3697
425,2144,2142,2143,3197,3024,3016,3025,3375,3323,3926
426,1143,3142,1183,3173,4118,3508,1642,4119,3512,3511
427,2148,3097,3086,3153,4120,3546,4121,4122,3911,4123
428,1084,3086,3097,3153,4124,3546,4125,4126,4123,3911
429,1015,1164,3129,3186,1712,4127,3711,3713,4128,3692
430,1194,3125,976,3131,4129,3634,1526,4130,3609,3633
431,743,1200,3088,3203,4131,4132,4072,4075,4133,4077
432,2238,3103,2189,3155,3536,4108,3047,3537,3485,4107
433,1179,3174,3102,3175,4134,3872,4135,4136,4138,4137
434,2241,3102,3174,3175,4139,3872,4140,4141,4137,4138
435,498,1159,486,3172,3899,4142,628,3848,3900,4143
436,722,982,742,3156,4041,4144,796,3892,4042,4145
437,3105,3161,2129,3184,3622,4146,4147,3533,4046,4148
438,1014,3115,3092,3168,4149,3228,4150,4151,3824,3822
439,746,1123,734,3120,3788,3928,865,3752,3789,3930
440,1060,3094,3127,3135,4152,3303,4153,4154,3710,4023
441,2118,3114,2164,3146,4155,3246,2817,4156,3248,3235
442,1134,508,973,3107,4024,4157,1294,3505,4025,4158
443,1076,3139,3096,3197,4159,4160,3739,3742,4161,3744
444,2242,3142,2091,3173,3543,4162,2825,3545,3512,4163
445,1079,1078,1080,3197,1958,1966,1965,3876,3344,3421
446,3122,3123,1047,3211,4164,4165,3671,3673,4166,3672
447,1187,3195,3126,3202,4167,4168,4054,4055,4169,3829
448,475,2032,2166,3113,4170,2338,3707,3665,3397,3706
449,508,2197,2034,3107,4070,2353,4171,4025,3528,4172
450,1084,3086,1087,3097,4124,3552,1991,4125,3546,3551
451,475,493,2032,3113,556,3513,4170,3665,3515,3397
452,2033,2233,2196,3184,2563,2562,2347,3502,3604,3774
453,2129,3184,3161,3185,4148,4046,4146,4173,3540,4049
454,972,1133,1171,3184,1288,1505,1504,3489,3726,3602
455,2148,2151,3086,3097,3049,3548,4121,4120,3547,3546
456,732,1142,756,3173,3863,4174,856,3838,3864,4085
457,3097,3149,1083,3155,4175,4176,3912,3913,3371,3651
458,3096,3139,2140,3197,4160,4177,3746,3744,4161,3748
459,2211,2040,498,3201,2410,4178,3847,3850,4179,3852
460,2208,3096,3089,3170,4180,3740,4097,4100,3811,4102
461,1131,3089,3096,3170,4103,3740,4181,4105,4102,3811
462,1029,3132,3095,3142,4182,4183,4184,4185,4186,3884
463,980,3117,732,3209,4187,3835,4188,4189,4191,4190
464,1098,493,475,3113,4037,556,3663,3664,3515,3665
465,2174,2263,3088,3203,2450,4073,4192,4193,4076,4077
466,2164,497,2038,3133,3464,4194,2395,3234,3565,4195
467,1166,3117,1034,3173,4196,3813,1790,4197,3839,4019
468,994,496,1138,3119,4198,3475,1330,4199,3477,3315
469,2136,3084,2135,3166,3661,4200,2990,3662,3641,4201
470,2222,484,2221,3119,4202,4203,2389,3316,4205,4204
471,2221,506,2037,3119,4206,4010,2386,4204,3991,4009
472,2032,474,2220,3124,4207,4117,2335,3403,4116,3988
473,2048,732,3117,3209,4208,3835,4209,4210,4190,4191
474,2237,2268,3130,3157,2645,4211,4061,4065,4212,4064
475,2056,3140,2075,3186,3520,3688,2698,3521,3522,3691
476,486,1159,1167,3172,4142,1351,4213,4143,3900,4214
477,3095,3132,2089,3142,4183,4215,3883,3884,4186,3885
478,1128,484,994,3119,4216,4217,1327,3992,4205,4199
479,2071,3092,2073,3140,4218,3821,2752,4219,3391,3941
480,2230,3182,3135,3183,4220,4221,4222,4223,4224,3573
481,3103,3155,1120,3156,3485,4225,4226,3894,4110,4227
482,3127,3135,2183,3164,4023,4022,4020,3280,4229,4228
483,2190,2238,2147,3153,2673,3048,3045,3878,3535,3733
484,1005,1203,428,3137,1239,3590,4230,4027,3290,3591
485,2031,491,2195,3150,4066,3909,2326,4069,3902,3908
486,971,1160,493,3124,1276,4231,3514,3402,4001,3524
487,1132,491,970,3150,3904,4081,1267,3903,3902,4082
488,2046,752,729,3130,3816,835,4232,3815,3781,4040
489,2211,498,486,3172,3847,628,4233,3849,3848,4143
490,2048,732,2204,3117,4208,3836,2506,4209,3835,3834
491,2073,3092,2072,3115,3821,4234,2753,3820,3228,4235
492,1104,3088,1200,3203,4236,4132,1392,4237,4077,4133
493,2182,2230,3135,3183,2962,4222,3572,3496,4223,3573
494,1179,3175,3102,3196,4136,4137,4135,4238,4239,4014
495,2111,3091,2112,3126,3879,4240,2914,3880,3279,4241
496,2239,3097,3150,3162,4242,4243,4244,4245,3550,3907
497,1154,1112,3100,3180,2022,4246,3424,3423,4247,3395
498,1120,3103,1178,3155,4226,3480,1989,4225,3485,3483
499,1177,3150,3097,3162,4248,4243,4249,4250,3907,3550
500,1192,996,731,3144,1438,4251,4252,4089,4254,4253
501,2065,3090,2068,3100,3655,4255,2734,3656,3381,4256
502,977,497,1129,3133,4257,3465,1336,4258,3565,3233
503,2147,3149,3097,3155,4259,4175,3953,3734,3371,3913
504,1116,1061,3135,3160,1897,4260,3580,3517,4261,3571
505,2085,2086,3083,3146,2802,4262,4263,4264,4266,4265
506,2086,3083,3146,3159,4262,4265,4266,4267,4269,4268
507,2127,2182,3135,3160,2959,3572,4270,4271,3494,3571
508,2222,496,484,3119,3476,607,4202,3316,3477,4205
509,2203,2047,754,3144,2497,4272,4273,4274,4275,4090
510,2032,493,474,3124,3513,553,4207,3403,3524,4116
511,484,506,2221,3119,604,4206,4203,4205,3991,4204
512,1040,3093,1039,3131,3596,4113,1802,3576,3597,4112
513,2098,2100,3087,3131,2860,4276,4079,3972,4277,4078
514,2084,3159,2119,3207,4278,3800,2798,4279,3833,3831
515,750,738,2178,3180,889,3629,3967,3969,3593,3445
516,991,472,491,3162,3270,541,4280,3271,3272,3905
517,1115,3105,3084,3166,4281,3619,4282,4283,4284,3641
518,3135,3182,1072,3183,4221,4285,4286,3573,4224,4287
519,3115,3116,2073,3168,4288,4289,3820,3824,4290,3823
520,1128,506,484,3119,3990,604,4216,3992,3991,4205
521,2067,3090,2065,3138,4291,3655,2732,4292,3231,3658
522,2086,3146,3095,3159,4266,3223,4293,4267,4268,3888
523,1134,3107,1169,3185,3505,4294,1512,3506,3474,4295
524,1052,1053,3091,3126,1855,4296,3960,3958,4297,3279
525,1160,474,493,3124,4115,553,4231,4001,4116,3524
526,1116,3135,1072,3183,3580,4286,1898,3518,3573,4287
527,2228,2171,3130,3202,2641,4052,3978,3981,4053,3785
528,725,2169,744,3204,4298,3940,811,4299,3649,3920
529,753,3130,1122,3157,4062,4300,4301,4063,4064,4302
530,1018,3128,3106,3194,4303,4304,4305,4306,4308,4307
531,1121,3127,3126,3195,3337,3328,4309,3338,3283,4168
532,2047,3134,754,3144,4310,4087,4272,4275,3794,4090
533,1192,731,754,3144,4252,847,4086,4089,4253,4090
534,1040,3131,976,3193,3576,3633,1523,3577,3578,3635
535,1029,3095,1030,3142,4184,3943,1763,4185,3884,3942
536,2171,752,2046,3202,4311,3816,2485,4053,3784,3817
537,2163,3125,2117,3131,3611,4312,2867,3610,3609,4313
538,2163,3131,2099,3193,3610,3598,2868,3613,3578,3600
539,1011,3090,1010,3092,3215,4314,1684,3218,3219,4315
540,3106,3128,2078,3194,4304,4316,4317,4307,4308,4318
541,736,1103,749,3186,4319,3696,880,3922,3626,3583
542,1065,3105,1064,3161,4320,4091,1903,4321,3622,4045
543,2246,3113,2032,3139,4322,3397,2554,4323,3400,3401
544,3096,3113,2137,3139,3945,4015,4016,4160,3400,4324
545,1058,3094,1124,3098,4325,3352,1883,4326,3296,3767
546,2092,3173,3142,3189,3938,3512,4327,3772,3939,4328
547,1078,3156,3155,3191,4329,4110,3343,3342,4330,3321
548,1203,1005,1157,3181,1239,1673,1364,3264,4028,4331
549,2074,2178,3100,3180,2764,3446,4332,4333,3445,3395
550,1014,3092,3140,3168,4150,3391,4334,4151,3822,3807
551,2142,3155,3156,3191,3320,4110,4335,3322,3321,4330
552,2215,2069,3090,3092,2740,4336,3214,3217,4337,3219
553,2122,3094,2114,3098,4338,3293,2933,4339,3296,3297
554,2098,3093,2099,3131,3971,3632,2853,3972,3597,3598
555,756,997,733,3173,4340,3525,859,4085,3408,3541
556,2038,497,485,3133,4194,613,4341,4195,3565,4342
557,994,484,496,3119,4217,607,4198,4199,4205,3477
558,2125,3094,2122,3098,3370,4338,2946,3769,3296,4339
559,980,1142,732,3117,1447,3863,4188,4187,3862,3835
560,977,485,497,3133,4343,613,4257,4258,4342,3565
561,1047,3111,3112,3211,4344,4345,3703,3672,4346,3705
562,1008,3090,1011,3138,4347,3215,1683,4348,3231,3229
563,2068,3090,2070,3100,4255,3376,2742,4256,3381,3379
564,3095,3146,1025,3159,3223,4349,4350,3888,4268,4351
565,2143,3192,3149,3197,4352,4353,3925,3926,4354,3374
566,2261,2170,2056,3141,2616,2697,2530,3758,3997,3519
567,2072,3092,2215,3115,4234,3217,2750,4235,3228,3226
568,2129,3105,2130,3161,4147,4355,2964,4146,3622,4356
569,2088,2089,3095,3132,2812,3883,4357,4358,4215,4183
570,1073,3113,3096,3139,3946,3945,3934,4359,3400,4160
571,1116,3108,1066,3161,3786,4360,1907,3516,3628,4361
572,1063,3160,3161,3185,4362,3492,4363,4364,3473,4049
573,2042,2120,3127,3195,2619,4365,3282,3284,4366,3283
574,756,1142,997,3173,4174,1450,4340,4085,3864,3408
575,2131,3108,2182,3161,4367,3775,2967,4368,3628,3493
576,3084,3105,2210,3166,3619,4369,4370,3641,4284,4371
577,3088,3089,2174,3203,4098,4372,4192,4077,4373,4193
578,1041,3131,1039,3198,4374,4112,1807,4375,3974,4114
579,2166,3113,2157,3136,3706,4376,3005,3708,3667,4377
580,1093,3113,1098,3136,4378,3664,1945,4379,3667,3668
581,1027,3095,1025,3159,4380,4350,1751,4381,3888,4351
582,2208,2139,3089,3096,3001,4382,4097,4180,4383,3740
583,1131,3089,1075,3096,4103,4384,1941,4181,3740,4385
584,1116,1063,3160,3161,1896,4362,3517,3516,4363,3492
585,2267,2063,2219,3181,2423,2730,2298,3341,4386,4034
586,1060,3135,3127,3164,4154,4023,4153,4387,4229,3280
587,1103,3140,1100,3141,3625,4388,1714,3624,3413,4389
588,3142,3173,1034,3189,3512,4019,4390,4328,3939,3814
589,1055,3094,1058,3098,3294,4325,1873,3295,3296,4326
590,978,3148,507,3172,4391,4392,4393,4394,4396,4395
591,3085,1007,3137,3138,3856,4397,4398,3659,3860,4399
592,1104,3089,3088,3203,4400,4098,4236,4237,4373,4077
593,2066,2065,3085,3138,2709,3653,4401,4402,3658,3659
594,1141,3165,3130,3202,4403,3979,3780,3783,3830,3785
595,1083,3097,1082,3149,3912,4404,1976,4176,4175,4405
596,3083,1025,3146,3159,4406,4349,4265,4269,4351,4268
597,1079,3149,3192,3197,3875,4353,4407,3876,3374,4354
598,725,744,1099,3204,811,3919,4408,4299,3920,3687
599,1000,1095,1155,3178,1654,1657,1235,3614,3915,3364
600,2159,2059,2217,3178,2713,2294,2716,3917,3616,3358
601,2069,2070,3090,3092,2743,3376,4336,4337,3383,3219
602,1121,1056,3126,3127,1878,4409,4309,3337,4410,3328
603,977,1138,496,3133,1333,3475,4411,4258,3319,3479
604,1168,3130,1141,3165,4412,3780,1608,4413,3979,4403
605,2080,3147,3106,3194,4414,4415,4416,4417,4418,4307
606,2241,2155,3102,3175,3071,4419,4139,4141,4420,4137
607,2096,2099,3093,3118,2854,3632,4421,4422,3599,3478
608,2128,2182,3160,3161,2960,3494,4423,4424,3493,3492
609,2226,3172,3116,3201,4425,4426,4427,4428,3851,4429
610,3118,3119,2037,3193,3385,4009,4430,3579,3994,4011
611,971,3113,1185,3139,3398,4431,1494,3399,3400,4432
612,2070,3092,2071,3140,3383,4218,2746,3390,3391,4219
613,2065,2177,3085,3100,2731,4433,3653,3656,4434,3657
614,2066,3085,3137,3138,4401,4398,4435,4402,3659,4399
615,1085,1162,3124,3192,1980,3698,4436,4437,3701,3702
616,1041,3087,3131,3198,4438,4078,4374,4375,3760,3974
617,1184,980,755,3209,1444,4439,4440,4441,4189,4442
618,1117,991,1197,3102,1261,1610,1609,3643,3268,3438
619,1011,3092,1012,3115,3218,4443,1690,3227,3228,4444
620,2260,2052,2192,3102,2676,2320,2677,3442,3287,3606
621,2189,3103,2194,3156,4108,3955,2624,4109,3894,3956
622,2199,507,3148,3172,4445,4392,4446,4447,4395,4396
623,1111,3090,1009,3100,3377,4448,1687,3380,3381,4449
624,1115,3136,3105,3166,4450,3531,4281,4283,4451,4284
625,2215,3090,2067,3138,3214,4291,2741,3230,3231,4292
626,2114,3094,2121,3127,3293,4452,2931,3302,3303,4453
627,500,2267,510,3181,4454,3339,719,3681,3341,3263
628,1057,3094,1055,3127,4455,3294,1871,4456,3303,3301
629,1113,3100,3085,3101,4457,3657,4458,4459,3559,4460
630,3126,3127,2120,3195,3328,4365,4461,4168,3283,4366
631,1093,1098,1189,3136,1945,1282,1502,4379,3668,4462
632,2166,2157,2254,3136,3005,2561,2341,3708,4377,3722
633,1038,3093,1035,3171,4463,3461,1795,4464,3463,3431
634,2203,754,731,3144,4273,847,4465,4274,4090,4253
635,3102,3175,2155,3196,4137,4420,4419,4014,4239,4466
636,3143,3167,1180,3178,4467,4468,4469,4470,3555,4471
637,1067,3105,1065,3161,3620,4320,1912,3621,3622,4321
638,2240,3167,3143,3178,4472,4467,4473,4474,3555,4470
639,2157,3136,3113,3166,4377,3667,4376,4475,4451,3947
640,2175,2073,3115,3116,2756,3820,4476,4477,4289,4288
641,2138,3096,2137,3139,4478,4016,2998,4479,4160,4324
642,2114,3091,2113,3099,3274,4480,2924,3276,3275,4481
643,3097,3149,2239,3150,4175,4482,4242,4243,4483,4244
644,1179,1091,3175,3196,2013,4484,4136,4238,4485,4239
645,1177,3149,3097,3150,4486,4175,4249,4248,4483,4243
646,2177,3085,3100,3101,4433,3657,4434,4487,4460,3559
647,733,2204,756,3173,4488,4084,859,3541,3837,4085
648,2111,3111,3091,3165,4489,4490,3879,3881,4491,3882
649,733,2205,2204,3173,3526,2509,4488,3541,3409,3837
650,1128,3119,3118,3193,3992,3385,4492,3993,3994,3579
651,3116,3172,2226,3194,4426,4425,4427,4493,4495,4494
652,2243,3132,3095,3133,4496,4183,3450,3451,4497,3220
653,2197,2231,3107,3185,2571,4498,3528,3530,4499,3474
654,1123,3109,1196,3120,3787,3842,1553,3789,3753,3841
655,991,491,1132,3162,4280,3904,1264,3271,3905,3906
656,1143,1183,997,3173,1642,1639,1640,4119,3511,3408
657,1162,473,492,3150,4500,547,3699,3844,4068,3845
658,990,1122,729,3130,1429,4501,4058,4059,4300,4040
659,1037,3093,1040,3118,4502,3596,1801,4503,3478,3574
660,1018,3129,3128,3194,4504,4505,4303,4306,4506,4308
661,3095,3132,1181,3133,4183,4507,3498,3220,4497,3499
662,2111,2110,3091,3111,2910,4508,3879,4489,4509,4490
663,2224,492,473,3150,3719,547,4510,3861,3845,4068
664,1010,3090,1111,3092,4314,3377,1686,4315,3219,3382
665,1067,1066,3108,3161,1913,4360,3627,3621,4361,3628
666,1071,1073,1070,3166,1934,1933,1929,3639,3935,3999
667,3128,3129,2078,3194,4505,4511,4316,4308,4506,4318
668,2189,2238,2194,3103,3047,2675,2624,4108,3536,3955
669,1120,1119,3103,3156,1558,3890,4226,4227,3893,3894
670,485,496,2222,3133,610,3476,4512,4342,3479,3317
671,2119,2212,3109,3159,2659,4513,3798,3800,4514,3799
672,2191,2030,3104,3177,2543,3677,4515,4516,3676,3675
673,2121,3094,2183,3127,4452,4021,2943,4453,3303,4020
674,1023,3172,1159,3201,4517,3900,1746,4518,3851,3901
675,3123,3130,2268,3157,4519,4211,4520,4521,4064,4212
676,2048,755,732,3209,4522,853,4208,4210,4442,4190
677,970,473,1162,3150,4080,4500,1270,4082,4068,3844
678,755,980,732,3209,4439,4188,853,4442,4189,4190
679,2146,3097,2147,3149,4523,3953,3036,4524,4175,4259
680,1013,3092,1111,3140,4525,3382,1694,4526,3391,3392
681,2149,3124,2224,3192,4527,3718,3039,4528,3702,3720
682,2130,3105,2132,3161,4355,3644,2973,4356,3622,3646
683,1154,3100,1113,3101,3424,4457,1665,3560,3559,4459
684,729,1122,753,3130,4501,4301,838,4040,4300,4062
685,2133,2134,2161,3170,2980,2986,2985,3243,3962,3415
686,2031,2224,473,3150,2329,4510,4067,4069,3861,4068
687,1063,3161,1064,3185,4363,4045,1900,4364,4049,4048
688,2156,3175,3178,3196,4529,4530,4531,4532,4239,4533
689,3113,3136,1093,3166,3667,4379,4378,3947,4451,4534
690,2168,3126,3195,3202,3827,4168,4535,3828,3829,4169
691,2089,2242,3109,3142,2824,3544,3986,3885,3543,3509
692,3105,3136,2210,3166,3531,4536,4369,4284,4451,4371
693,2123,2127,3135,3160,2950,4270,3709,3306,4271,3571
694,1183,1030,3109,3142,1775,4096,3510,3508,3942,3509
695,2123,2183,3094,3135,2944,4021,3304,3709,4022,3710
696,1015,3140,1103,3186,3712,3625,1713,3713,3522,3626
697,1007,1009,3090,3100,1678,4448,3855,3857,4449,3381
698,1047,3122,1046,3123,3671,4537,1831,4165,4164,4538
699,3093,2179,3171,3198,4539,4540,3463,3975,4542,4541
700,978,507,1167,3172,4393,4543,1348,4394,4395,4214
701,3143,3177,969,3190,4544,3693,4545,4546,3680,3695
702,485,977,496,3133,4343,4411,610,4342,4258,3479
703,1023,3116,3172,3201,4547,4426,4517,4518,4429,3851
704,1075,3089,1076,3096,4384,3741,1948,4385,3740,3739
705,2139,2140,3089,3096,3006,3747,4382,4383,3746,3740
706,2048,2245,755,3209,2503,4548,4522,4210,4549,4442
707,2237,2268,2046,3130,2645,2644,2488,4061,4211,3815
708,2112,3091,2114,3126,4240,3274,2923,4241,3279,3277
709,2182,3108,2232,3183,3775,4550,2640,3496,3776,4551
710,978,3147,3148,3172,4552,4553,4391,4394,4554,4396
711,1122,3130,3123,3157,4300,4519,4555,4302,4064,4521
712,1110,1042,1107,3213,1818,1819,1575,4556,3859,3804
713,1014,3092,1013,3140,4150,4525,1699,4334,3391,4526
714,3098,3107,1125,3200,3768,4557,4558,4559,4561,4560
715,2131,2132,3108,3161,2972,3647,4367,4368,3646,3628
716,1067,3084,1115,3105,3618,4282,1915,3620,3619,4281
717,2210,3084,2132,3105,4370,3645,2974,4369,3619,3644
718,2119,3109,2049,3120,3798,3750,2660,3797,3753,3754
719,1179,998,3102,3174,1646,3868,4135,4134,3871,3872
720,2241,3102,2057,3174,4139,3931,2704,4140,3872,3933
721,1074,1073,3096,3139,1937,3934,4562,4563,4359,4160
722,2190,3104,3153,3177,4106,4008,3878,4564,3675,4565
723,485,2222,2038,3133,4512,2392,4341,4342,3317,4195
724,1069,1068,1097,3170,1921,1926,1925,4003,3267,3449
725,2101,2103,2259,3213,2873,2876,2875,3762,4566,3731
726,2205,2242,2091,3173,2662,2825,2833,3409,3545,4163
727,2165,3107,3098,3200,4567,3768,4568,4569,4561,4559
728,1084,3097,1083,3153,4125,3912,1982,4126,3911,3650
729,1130,3152,1011,3163,4570,3249,1697,4571,3252,3238
730,501,2250,2053,3200,4572,2359,4573,4574,4576,4575
731,2178,2177,3100,3101,2720,4434,3446,3584,4487,3559
732,1008,1007,3090,3138,1675,3855,4347,4348,3860,3231
733,1194,1137,976,3125,1529,1321,1526,4129,3937,3634
734,3106,3147,1018,3194,4415,4577,4305,4307,4418,4306
735,486,1167,507,3172,4213,4543,625,4143,4214,4395
736,2258,2191,2030,3104,2544,2543,2435,4578,4515,3677
737,1103,1100,1199,3141,1714,1589,1471,3624,4389,4005
738,1060,3094,1057,3127,4152,4455,1882,4153,3303,4456
739,2094,3093,2097,3171,3462,4579,2846,3432,3463,4580
740,1014,3116,3115,3168,4581,4288,4149,4151,4290,3824
741,1134,1133,495,3184,1291,3853,4582,3538,3726,3854
742,1129,995,1195,3114,1339,1629,1628,3247,4583,3982
743,2086,3095,2089,3159,4293,3883,2811,4267,3888,3886
744,1037,1035,3093,3118,1793,3461,4502,4503,3456,3478
745,2171,2046,2228,3130,2485,2642,2641,4052,3815,3978
746,3144,3171,2179,3198,4584,4540,4585,3796,4541,4542
747,1172,3108,1116,3183,4586,3786,1573,4587,3776,3518
748,2235,3151,3128,3207,4588,4589,4590,4591,4593,4592
749,1101,3088,1104,3089,4594,4236,1963,4595,4098,4400
750,2174,3088,2172,3089,4192,4596,3021,4372,4098,4597
751,1124,1125,3098,3107,1507,4558,3767,3353,4557,3768
752,1049,1047,3111,3112,1839,4344,4598,4599,3703,4345
753,1070,1115,3084,3166,1924,4282,3998,3999,4283,3641
754,2189,2142,3155,3156,3026,3320,4107,4109,4335,4110
755,2211,507,2199,3172,4600,4445,2407,3849,4395,4447
756,1056,1055,3126,3127,1862,3327,4409,4410,3301,3328
757,2140,3096,2138,3139,3746,4478,3007,4177,4160,4479
758,2211,486,507,3172,4233,625,4600,3849,4143,4395
759,501,3200,2053,3210,4574,4575,4573,4601,4603,4602
760,3098,3200,992,3210,4559,4604,4605,4606,4603,4607
761,2213,3098,2114,3099,4608,3297,2927,4609,3330,3276
762,2199,3148,3147,3172,4446,4553,4610,4447,4396,4554
763,1178,1120,1119,3103,1989,1558,1593,3480,4226,3890
764,2125,3098,2165,3107,3769,4568,2566,3770,3768,4567
765,501,992,1188,3200,4611,1300,4612,4574,4604,4613
766,3088,3110,2208,3170,4614,4615,4099,4101,3245,4100
767,1014,1012,3092,3115,1698,4443,4150,4149,4444,3228
768,1007,3085,1113,3100,3856,4458,1680,3857,3657,4457
769,1134,495,477,3184,4582,568,3503,3538,3854,3539
770,981,1123,1196,3120,1456,1553,1552,3929,3789,3841
771,1131,3110,3088,3170,4616,4614,4104,4105,3245,4101
772,1051,3091,3111,3165,4617,4490,4618,4619,3882,4491
773,2101,3087,2103,3213,3761,4620,2873,3762,3763,4566
774,1177,1082,3097,3149,1979,4404,4249,4486,4405,4175
775,2204,2227,3117,3173,2657,4056,3834,3837,4057,3839
776,2092,2091,3142,3173,2826,4162,4327,3938,4163,3512
777,1071,3084,1069,3170,3636,4002,1930,3810,3587,4003
778,2134,3084,2136,3170,3961,3661,2989,3962,3587,3812
779,1051,1052,3091,3165,1850,3960,4617,4619,3957,3882
780,1028,1129,1195,3146,1768,1628,1755,3224,3236,3983
781,2196,2197,477,3184,2350,3529,4621,3774,3554,3539
782,2094,2096,3093,3118,2844,4421,3462,3455,4422,3478
783,2132,3084,2133,3108,3645,3586,2977,3647,3585,3242
784,2165,3200,3098,3210,4569,4559,4568,4622,4603,4606
785,74,971,493,1098,1275,3514,551,1277,1279,4037
786,2239,3097,2146,3149,4242,4523,3038,4482,4175,4524
787,2206,3177,3143,3190,4623,4544,4624,4625,3680,4546
788,1147,969,3143,3177,1486,4545,4626,4627,3693,4544
789,1203,1157,500,3181,1364,4628,3790,3264,4331,3681
790,2088,3095,2243,3132,4357,3450,2814,4358,4183,4496
791,2172,3088,2208,3089,4596,4099,2633,4597,4098,4097
792,1101,1131,3088,3089,1567,4104,4594,4595,4103,4098
793,1043,3122,3087,3213,4629,4630,4631,4632,4633,3763
794,2074,2252,2178,3180,2615,2539,2764,4333,3970,3445
795,1198,3104,969,3177,4634,3694,1485,4635,3675,3693
796,2235,3128,2083,3207,4590,4636,2791,4591,4592,4637
797,2239,3150,2195,3162,4244,3908,2552,4245,3907,3910
798,1132,3150,1177,3162,3903,4248,1493,3906,3907,4250
799,1067,1068,3084,3108,1916,3592,3618,3627,3266,3585
800,1147,1089,3086,3143,2004,4638,4639,4626,4641,4640
801,1198,1140,969,3104,1484,1376,1485,4634,3756,3694
802,1181,3095,1029,3132,3498,4184,1767,4507,4183,4182
803,1154,1202,1112,3180,1480,1592,2022,3423,4051,4247
804,1030,3095,1027,3159,3943,4380,1764,3944,3888,4381
805,2113,3099,3091,3199,4481,3275,4480,4642,4644,4643
806,2147,3097,2148,3153,3953,4120,3040,3733,3911,4122
807,3093,3171,1038,3198,3463,4464,4463,3975,4541,4645
808,1142,3117,1166,3173,3862,4196,1551,3864,3839,4197
809,3086,3143,1089,3196,4640,4641,4638,4012,4647,4646
810,477,495,2196,3184,568,3950,4621,3539,3854,3774
811,2089,3109,2212,3159,3986,4513,2813,3886,3799,4514
812,1150,1055,3098,3099,1866,3295,4648,4649,3329,3330
813,1021,3106,3128,3207,4650,4304,4651,4652,4653,4592
814,2206,3086,2153,3143,4654,4655,3064,4624,4640,4656
815,2057,146,490,2192,2312,647,4038,2317,2316,3793
816,501,992,3200,3210,4611,4604,4574,4601,4607,4603
817,2081,3128,3106,3207,4657,4304,4658,4659,4592,4653
818,2246,2137,3113,3139,3003,4015,4322,4323,4324,3400
819,2128,3161,3160,3185,4424,3492,4423,4660,4049,3473
820,1047,3121,1045,3122,3669,4661,1830,3671,3670,4662
821,1026,1196,3159,3207,1758,3843,4663,4664,3865,3833
822,742,3156,982,3203,4145,4042,4144,4665,4667,4666
823,1020,1018,3106,3147,1725,4305,4668,4669,4577,4415
824,2186,3179,3099,3199,4670,4671,4672,4673,4674,4644
825,1180,3167,3143,3190,4468,4467,4469,4675,4676,4546
826,1110,3087,1042,3213,4677,3951,1818,4556,3763,3859
827,1007,1006,3137,3138,1650,4678,4397,3860,4679,4399
828,1076,1074,3096,3139,1947,4562,3739,4159,4563,4160
829,2105,3121,2106,3122,4680,3765,2888,4681,3670,3764
830,2074,3100,2070,3180,4332,3379,2610,4333,3395,3393
831,3135,3164,1072,3182,4229,4682,4286,4221,4683,4285
832,2230,3164,3135,3182,4684,4229,4222,4220,4683,4221
833,3086,3143,2206,3177,4640,4624,4654,4685,4544,4623
834,1064,3105,1171,3184,4091,3601,1908,4047,3533,3602
835,2233,3105,2129,3184,3603,4147,2969,3604,3533,4148
836,2080,3106,2078,3194,4416,4317,2775,4417,4307,4318
837,993,1126,83,3179,1306,1302,1304,4686,4688,4687
838,1198,3153,3104,3177,4689,4008,4634,4635,4565,3675
839,3087,3131,2100,3208,4078,4277,4276,4690,4692,4691
840,2043,3156,742,3203,4693,4145,4694,4695,4667,4665
841,1106,3171,3144,3198,4696,4584,4697,4698,4541,3796
842,1120,3155,1078,3156,4225,3343,1968,4227,4110,4329
843,2128,2129,3161,3185,2956,4146,4424,4660,4173,4049
844,2190,2191,3104,3177,2671,4515,4106,4564,4516,3675
845,1100,3140,1111,3141,4388,3392,1588,4389,3413,3411
846,1121,1191,1056,3127,1603,1877,1878,3337,3569,4410
847,2135,3084,2210,3166,4200,4370,2984,4201,3641,4371
848,2170,2070,3140,3141,2614,3390,3996,3997,3412,3413
849,1055,3091,1053,3126,3362,4296,1861,3327,3279,4297
850,2118,2257,2164,3114,2599,2398,2817,4155,4699,3246
851,2225,3129,3169,3186,4043,4700,4701,4044,3692,4702
852,3143,3167,2240,3190,4467,4472,4473,4546,4676,4703
853,1044,3131,3087,3208,4704,4078,4705,4706,4692,4690
854,2057,490,146,471,4038,647,2312,3932,535,646
855,2176,3115,2215,3163,4707,3226,2688,4708,3239,3237
856,1098,493,74,475,4037,551,1277,3663,556,555
857,1034,3142,1143,3173,4390,4118,1781,4019,3512,4119
858,2117,2163,2255,3125,2867,2380,2582,4312,3611,4709
859,2049,2205,330,746,2512,2508,2510,3749,3963,949
860,2153,3086,2154,3196,4655,3737,3060,4710,4012,4013
861,2097,3093,2179,3171,4579,4539,2856,4580,3463,4540
862,1102,3176,3175,3205,4711,4712,4713,4714,4716,4715
863,3175,3176,2173,3205,4712,4717,4718,4715,4716,4719
864,2075,3140,2073,3168,3688,3941,2755,3840,3807,3823
865,1044,1041,3087,3131,1814,4438,4705,4704,4374,4078
866,1115,972,3105,3136,1501,3534,4281,4450,3486,3531
867,2210,3105,2033,3136,4369,3532,2558,4536,3531,3501
868,3099,3179,1127,3199,4671,4720,4721,4644,4674,4722
869,989,1121,239,727,1417,1416,1412,3588,3542,822
870,2230,2127,2182,3135,2961,2959,2962,4222,4270,3572
871,2113,2186,3099,3199,2918,4672,4481,4642,4673,4644
872,2119,2084,2212,3159,2798,2803,2659,3800,4278,4514
873,2153,3143,3086,3196,4656,4640,4655,4710,4647,4012
874,1054,3091,1055,3099,4723,3362,1860,4724,3275,3329
875,1111,3100,1112,3180,3380,4246,1591,3394,3395,4247
876,1062,1169,3107,3185,1901,4294,3253,3472,4295,3474
877,1147,3143,3086,3177,4626,4640,4639,4627,4544,4685
878,1060,1059,3094,3135,1881,3453,4152,4154,3952,3710
879,1084,1088,3086,3153,1993,4725,4124,4126,4726,4123
880,1106,1038,3171,3198,1804,4464,4696,4698,4645,4541
881,2102,3087,3122,3213,4727,4630,4728,4729,3763,4633
882,2149,2220,2224,3124,3054,2332,3039,4527,3988,3718
883,1097,1099,1190,3110,1927,1402,1565,3448,3686,3977
884,1023,3116,1019,3172,4547,4730,1722,4517,4426,4731
885,751,239,1121,727,824,1416,3384,826,822,3542
886,2224,2220,151,492,2332,2331,2327,3719,3987,656
887,3116,1019,3172,3194,4730,4731,4426,4493,4732,4495
888,475,2032,153,2166,4170,2333,661,3707,2338,2337
889,2152,2148,3086,3153,3051,4121,4733,4734,4122,4123
890,2203,2047,325,754,2497,2493,2495,4273,4272,936
891,2235,3128,3151,3169,4590,4589,4588,4735,4737,4736
892,993,83,502,3179,1304,582,4738,4686,4687,4739
893,1164,3169,3129,3186,4740,4700,4127,4128,4702,3692
894,2098,3087,2101,3198,4079,3761,2862,3973,3760,3759
895,2206,2030,3177,3190,2541,3676,4623,4625,3679,3680
896,2063,2267,500,3181,2423,4454,4741,4386,3341,3681
897,1162,1160,1085,3124,1273,1995,1980,3698,4001,4436
898,1160,1162,72,492,1273,1269,1271,4000,3699,545
899,1043,3087,1110,3213,4631,4677,1817,4632,3763,4556
900,2239,2150,3097,3162,3044,4031,4242,4245,4032,3550
901,2246,2138,2137,3139,3002,2998,3003,4323,4479,4324
902,1149,3104,1198,3153,4007,4634,1598,3809,4008,4689
903,1177,3097,1086,3162,4249,4035,1985,4250,3550,4036
904,2155,2154,3102,3196,3067,3738,4419,4466,4013,4014
905,2079,2226,3172,3194,2773,4425,4742,4743,4494,4495
906,2119,2049,2256,3120,2660,2515,2661,3797,3754,4744
907,2156,2155,3175,3196,3069,4420,4529,4532,4466,4239
908,1008,1011,1193,3138,1683,1685,1676,4348,3229,4092
909,1149,3103,988,3104,3808,4745,1596,4007,4006,4746
910,2081,2083,3128,3207,2788,4636,4657,4659,4637,4592
911,501,478,2250,3200,577,4747,4572,4574,4748,4576
912,2081,2078,3106,3128,2777,4317,4658,4657,4316,4304
913,2240,2159,3167,3178,3080,3916,4472,4474,3917,3555
914,2084,3083,2086,3159,4749,4262,2801,4278,4269,4267
915,508,3107,2034,3200,4025,4172,4171,4750,4561,4751
916,1089,1090,3086,3196,2002,3735,4638,4646,4018,4012
917,2165,2053,3200,3210,2681,4575,4569,4622,4602,4603
918,2081,2083,2235,3128,2788,2791,2790,4657,4636,4590
919,2120,3126,2114,3127,4461,3277,2926,4365,3328,3302
920,1084,1088,1087,3086,1993,1992,1991,4124,4725,3552
921,1077,1076,3089,3191,1951,3741,4752,4753,3965,3964
922,2041,2070,3141,3180,2612,3412,4754,4755,3393,3430
923,1117,998,67,490,1258,1254,1256,3642,4071,534
924,2095,2037,3118,3119,2587,4430,3723,3724,4009,3385
925,1095,1180,3167,3178,2020,4468,3914,3915,4471,3555
926,2137,2136,2135,3166,2993,2990,2994,4017,3662,4201
927,1054,3099,1127,3199,4724,4721,1867,4756,4644,4722
928,2169,2161,2253,3110,2988,2632,2461,3648,3414,4030
929,973,3107,508,3200,4158,4025,4157,4757,4561,4750
930,992,3098,1125,3200,4605,4558,1612,4604,4559,4560
931,2215,3138,2162,3152,3230,4758,2684,3250,3251,4759
932,1072,1116,1061,3135,1898,1897,1891,4286,3580,4260
933,2214,3087,2100,3208,4760,4276,2872,4761,4690,4691
934,2151,2152,2148,3086,3052,3051,3049,3548,4733,4121
935,2071,2072,2073,3092,2748,2753,2752,4218,4234,3821
936,2156,3175,2158,3178,4529,4762,3074,4531,4530,4763
937,2084,2085,2086,3083,2794,2802,2801,4749,4263,4262
938,2054,2215,3152,3163,2685,3250,4764,4765,3237,3252
939,733,330,2205,746,946,2508,3526,862,949,3963
940,2249,2055,757,3164,2473,4766,4767,3460,4769,4768
941,2154,2241,2155,3102,3072,3071,3067,3738,4139,4419
942,742,982,1207,3203,4144,1388,4770,4665,4666,4771
943,2056,2075,2225,3186,2698,2700,2699,3521,3691,4044
944,1194,976,1040,3131,1526,1523,1527,4130,3633,3576
945,478,501,1188,3200,577,4612,4772,4748,4574,4613
946,2056,2170,2075,3140,2697,2696,2698,3520,3996,3688
947,1044,1208,1194,3208,1827,1829,1816,4706,4774,4773
948,94,1129,497,995,1335,3465,611,1337,1339,4775
949,972,1171,1115,3105,1504,1503,1501,3534,3601,4281
950,2033,2210,2233,3105,2558,2564,2563,3532,4369,3603
951,2032,153,493,475,2333,660,3513,4170,661,556
952,2190,2051,3103,3104,2672,4776,3877,4106,4777,4006
953,2102,2103,3087,3213,2874,4620,4727,4729,4566,3763
954,2032,3124,2188,3139,3403,4778,2556,3401,3404,4779
955,2077,3116,2226,3194,4780,4427,2774,4781,4493,4494
956,1158,1072,3164,3182,1893,4682,4782,4783,4285,4683
957,2101,2098,2100,3087,2862,2860,2863,3761,4079,4276
958,1037,1040,1182,3118,1801,1524,1798,4503,3574,3923
959,1065,1171,1064,3105,1909,1908,1903,4320,3601,4091
960,1021,3106,1018,3128,4650,4305,1727,4651,4304,4303
961,2232,2182,2131,3108,2640,2967,2978,4550,3775,4367
962,2129,2233,2130,3105,2969,2968,2964,4147,3603,4355
963,1133,972,77,476,1288,1284,1286,3725,3488,560
964,497,505,94,995,616,615,611,4775,4784,1337
965,2229,3112,3154,3158,4785,4786,4787,4788,4790,4789
966,93,1129,977,497,1334,1336,1332,612,3465,4257
967,3121,3145,2234,3154,4791,4792,4793,4794,4796,4795
968,2042,2120,2124,3127,2619,2618,2617,3282,4365,3566
969,88,976,1137,482,1319,1321,1317,597,3745,3936
970,474,151,2220,492,657,2331,4117,550,656,3987
971,2183,3135,2230,3164,4022,4222,2694,4228,4229,4684
972,1015,3129,1016,3168,3711,4797,1707,3805,3806,4798
973,1030,1153,3109,3159,1765,4799,4096,3944,4800,3799
974,2249,757,727,3164,4767,823,3457,3460,4768,3459
975,1128,484,90,994,4216,603,1323,1327,4217,1325
976,238,757,1158,3164,819,4801,1409,4802,4768,4782
977,172,2038,2164,497,2390,2395,2394,699,4194,3464
978,2084,3083,3159,3207,4749,4269,4278,4279,4803,3833
979,474,1160,72,492,4115,1271,549,550,4000,545
980,1172,3108,3183,3204,4586,3776,4587,4804,3298,4805
981,1210,3151,3120,3207,4806,4807,4808,4809,4593,3832
982,1059,3135,1061,3160,3952,4260,1886,3454,3571,4261
983,158,508,2197,2034,671,4070,2348,2352,4171,2353
984,1041,1040,1039,3131,1806,1802,1807,4374,3576,4112
985,170,2221,2222,484,2384,2389,2388,694,4203,4202
986,2048,2204,2227,3117,2506,2657,2656,4209,3834,4056
987,722,2194,2043,308,3954,2444,4810,902,2440,2442
988,1186,1011,1012,3115,1695,1690,1696,3896,3227,4444
989,2043,742,2269,3203,4694,4811,2447,4695,4665,4812
990,742,722,2043,308,796,4810,4694,905,902,2442
991,1159,98,486,1167,1349,623,4142,1351,1347,4213
992,2141,3089,3191,3203,4813,3964,4814,4815,4373,4816
993,2096,2244,2099,3118,2849,2855,2854,4422,4094,3599
994,1163,3154,3112,3158,4817,4786,4818,4819,4789,4790
995,2107,3112,2106,3121,4820,3779,2892,4821,3704,3765
996,473,149,2031,491,653,2325,4067,544,652,4066
997,2208,3088,2044,3110,4099,4822,2629,4615,4614,4823
998,2214,2102,3087,3208,2871,4727,4760,4761,4824,4690
999,2082,2085,3083,3206,2795,4263,4825,4826,4828,4827
1000,1137,504,88,482,3948,593,1317,3936,598,597
1001,2136,3096,2208,3170,3660,4180,2992,3812,3811,4100
1002,1071,1131,3096,3170,1931,4181,3638,3810,4105,3811
1003,238,1158,989,3164,1409,1414,1413,4802,4782,3589
1004,1062,1169,1124,3107,1901,1510,1890,3253,4294,3353
1005,1052,1187,1053,3126,1515,1859,1855,3958,4054,4297
1006,969,1180,3143,3190,1482,4469,4545,3695,4675,4546
1007,987,3141,1111,3180,4829,3411,1587,4830,3430,3394
1008,1066,1116,1172,3108,1907,1573,1919,4360,3786,4586
1009,1021,3128,1176,3207,4651,4831,1738,4652,4592,4832
1010,1033,1036,1165,3119,1786,1625,1783,3366,3631,3334
1011,1069,1071,1070,3084,1930,1929,1923,4002,3636,3998
1012,2134,2135,2136,3084,2982,2990,2989,3961,4200,3661
1013,970,70,473,491,1265,543,4080,4081,539,544
1014,1025,3095,1028,3146,4350,3222,1753,4349,3223,3224
1015,1145,3151,3128,3169,4833,4589,4834,4835,4736,4737
1016,490,998,67,471,4071,1254,534,535,3869,530
1017,1131,983,3088,3110,1564,4836,4104,4616,4837,4614
1018,1027,1028,1025,3095,1754,1753,1751,4380,3222,4350
1019,1128,1036,3118,3119,1624,3630,4492,3992,3631,3385
1020,2248,2035,502,3179,2365,4838,4839,4840,4841,4739
1021,2258,740,2030,305,4842,3684,2435,2433,896,2431
1022,2250,159,2034,3200,2355,2351,2356,4576,4843,4751
1023,973,1134,79,508,1294,1290,1292,4157,4024,570
1024,1077,3191,3089,3203,4753,3964,4752,4844,4816,4373
1025,1121,3126,1187,3195,4309,4054,1517,3338,4168,4167
1026,472,2052,148,491,3286,2318,650,541,4845,651
1027,1043,1110,3122,3213,1817,4846,4629,4632,4556,4633
1028,2049,331,2256,746,2511,2513,2515,3749,948,4847
1029,2232,3183,3108,3204,4551,3776,4550,4848,4805,3298
1030,2232,3108,2133,3204,4550,3242,2979,4848,3298,3299
1031,977,485,93,497,4343,608,1332,4257,613,612
1032,152,2220,2032,474,2330,2335,2334,658,4117,4207
1033,2118,2164,2087,3146,2817,2816,2807,4156,3235,3347
1034,3087,3122,1043,3208,4630,4629,4631,4690,4850,4849
1035,1168,3130,3165,3211,4412,3979,4413,4851,4853,4852
1036,1108,3117,980,3209,4854,4187,1545,4855,4191,4189
1037,1139,995,95,3114,1342,1338,1340,4856,4583,4857
1038,2257,173,2164,497,2397,2393,2398,4858,700,3464
1039,2102,3122,3087,3208,4728,4630,4727,4824,4850,4690
1040,1185,3113,1073,3139,4431,3946,1943,4432,3400,4359
1041,472,69,991,491,536,1260,3270,541,540,4280
1042,997,251,746,1123,1448,860,3984,1453,1452,3788
1043,2076,3129,2075,3168,4859,3690,2759,4860,3806,3840
1044,2113,3091,2186,3199,4480,4861,2918,4642,4643,4673
1045,2231,2125,3107,3185,2568,3770,4498,4499,4862,3474
1046,1067,1065,1066,3161,1912,1905,1913,3621,4321,4361
1047,980,1166,1142,3117,1549,1551,1447,4187,4196,3862
1048,91,1138,994,496,1328,1330,1326,606,3475,4198
1049,1108,3171,3117,3209,4863,3309,4854,4855,4864,4191
1050,2206,3143,2240,3190,4624,4473,2547,4625,4546,4703
1051,1133,77,495,476,1286,564,3853,3725,560,565
1052,2255,2163,167,482,2380,2379,2375,4865,3714,689
1053,2204,2048,328,732,2506,2502,2504,3836,4208,942
1054,2215,2072,2069,3092,2750,2749,2740,3217,4234,4337
1055,1112,1113,1154,3100,1689,1665,2022,4246,4457,3424
1056,2068,2065,2067,3090,2734,2732,2735,4255,3655,4291
1057,1021,1151,3106,3207,1737,4866,4650,4652,4867,4653
1058,2040,498,177,2211,4178,709,2409,2410,3847,2405
1059,973,80,1188,3200,1293,1295,1297,4757,4868,4613
1060,2214,2100,3131,3208,2872,4277,4869,4761,4691,4692
1061,1047,3112,1048,3121,3703,4870,1833,3669,3704,4871
1062,2141,2174,3089,3203,3022,4372,4813,4815,4193,4373
1063,2187,3099,2186,3179,4872,4672,2572,4873,4671,4670
1064,992,1150,3098,3210,1614,4648,4605,4607,4874,4606
1065,234,1190,1099,744,1397,1402,1401,807,3976,3919
1066,1020,3147,3106,3206,4669,4415,4668,4875,4877,4876
1067,2148,2150,2151,3097,3042,3050,3049,4120,4031,3547
1068,498,98,486,1159,627,623,628,3899,1349,4142
1069,2080,3147,2236,3206,4414,4878,2780,4879,4877,4880
1070,1122,3123,1174,3157,4555,4881,1580,4302,4521,4882
1071,2111,2112,2168,3126,2914,2920,2919,3880,4241,3827
1072,1114,3123,1122,3130,4883,4555,1605,4884,4519,4300
1073,2082,3106,2207,3206,4885,4886,2786,4826,4876,4887
1074,1056,1187,1121,3126,1864,1517,1878,4409,4054,4309
1075,1188,501,81,992,4612,576,1296,1300,4611,1298
1076,502,3158,993,3179,4888,4889,4738,4739,4890,4686
1077,1094,3175,1091,3196,4891,4484,2015,4892,4239,4485
1078,2248,502,479,3179,4839,583,4893,4840,4739,4894
1079,2110,2186,3091,3199,2907,4861,4508,4895,4673,4643
1080,754,325,2203,731,936,2495,4273,847,939,4465
1081,90,484,1128,506,603,4216,1323,599,604,3990
1082,160,501,2250,2053,675,4572,2354,2358,4573,2359
1083,1084,1087,1086,3097,1991,1990,1984,4125,3551,4035
1084,1068,3108,1172,3204,3266,4586,1918,3326,3298,4804
1085,1186,3163,3115,3201,3897,3239,3896,4896,4898,4897
1086,2115,2222,2221,3119,2935,2389,2850,3354,3316,4204
1087,1098,75,1189,475,1278,1280,1282,3663,554,4899
1088,55,2219,2058,3137,2296,2301,2300,4900,4033,4901
1089,2114,2112,2113,3091,2923,2916,2924,3274,4240,4480
1090,990,1141,1168,3130,1426,1608,1607,4059,3780,4412
1091,1023,1167,1159,3172,1730,1351,1746,4517,4214,3900
1092,2102,2100,2214,3087,2870,2872,2871,4727,4276,4760
1093,1067,1070,1115,3084,1922,1924,1915,3618,3998,4282
1094,2135,2132,2210,3084,2983,2974,2984,4200,3645,4370
1095,2080,3106,3147,3206,4416,4415,4414,4879,4876,4877
1096,2037,2244,3118,3193,2589,4094,4430,4011,4095,3579
1097,2098,2179,3093,3198,2857,4539,3971,3973,4542,3975
1098,2235,2083,3151,3207,2791,4902,4588,4591,4637,4593
1099,1186,1130,1011,3163,1544,1697,1695,3897,4571,3238
1100,328,2204,732,756,2504,3836,942,945,4084,856
1101,2235,3151,2050,3169,4588,4903,2666,4735,4736,4904
1102,2055,3164,2230,3182,4769,4684,2693,4905,4683,4220
1103,1062,3160,1063,3185,3256,4362,1894,3472,3473,4364
1104,2092,2227,2091,3173,2832,2831,2826,3938,4057,4163
1105,1052,1053,1051,3091,1855,1854,1850,3960,4296,4617
1106,2236,3147,2199,3148,4878,4610,2600,4906,4553,4446
1107,3091,3099,1054,3199,3275,4724,4723,4643,4644,4756
1108,1144,253,981,3120,1458,1454,1459,4907,4908,3929
1109,1197,1086,1087,3162,1996,1990,1997,3441,4036,3553
1110,1002,1152,43,3101,1248,1244,1246,4909,4911,4910
1111,2038,172,485,497,2390,698,4341,4194,699,613
1112,2150,2260,2151,3162,3056,3055,3050,4032,3444,3549
1113,2113,2110,2186,3091,2917,2907,2918,4480,4508,4861
1114,2180,3171,3144,3209,4912,4584,4913,4914,4864,4915
1115,1077,3089,1104,3203,4752,4400,1962,4844,4373,4237
1116,2190,3153,2152,3177,3878,4734,3053,4564,4565,4916
1117,1014,1105,3115,3116,1701,4917,4149,4581,4918,4288
1118,745,984,1170,3183,4919,1408,4920,4921,4923,4922
1119,1096,3174,1179,3175,4924,4134,1645,4925,4138,4136
1120,2241,3174,2160,3175,4140,4926,2705,4141,4138,4927
1121,1148,3124,971,3139,4928,3402,1496,4929,3404,3399
1122,498,486,177,2211,628,708,709,3847,4233,2405
1123,508,477,158,2197,571,670,671,4070,3529,2348
1124,1127,3099,1201,3179,4721,4930,1868,4720,4671,4931
1125,2082,2207,2085,3206,2786,2796,2795,4826,4887,4828
1126,975,3145,3121,3154,4932,4791,4933,4934,4796,4794
1127,2114,2122,2121,3094,2933,2932,2931,3293,4338,4452
1128,1022,3106,3083,3206,4935,4936,4937,4938,4876,4827
1129,484,2222,170,496,4202,2388,694,607,3476,695
1130,2075,2071,2073,3140,2754,2752,2755,3688,4219,3941
1131,2258,721,740,305,4939,787,4842,2433,899,896
1132,2141,3089,2140,3191,4813,3747,3011,4814,3964,3966
1133,1040,976,1182,3193,1523,1525,1524,3577,3635,3924
1134,2082,3083,3106,3206,4825,4936,4885,4826,4827,4876
1135,2225,3169,2201,3186,4701,4940,2701,4044,4702,4941
1136,2123,2122,2125,3094,2942,2946,2945,3304,4338,3370
1137,3144,3171,1108,3209,4584,4863,4942,4915,4864,4855
1138,1085,3192,3124,3197,4437,3702,4436,4943,4354,4944
1139,2225,3129,2202,3169,4043,4945,2770,4701,4700,4946
1140,1128,3118,1182,3193,4492,3923,1528,3993,3579,3924
1141,969,1180,1147,3143,1482,1487,1486,4545,4469,4626
1142,2032,493,152,474,3513,659,2334,4207,553,658
1143,1021,1176,1151,3207,1738,1740,1737,4652,4832,4867
1144,3128,3151,1176,3207,4589,4947,4831,4592,4593,4832
1145,2257,505,173,497,4948,701,2397,4858,616,700
1146,727,757,238,3164,823,819,821,3459,4768,4802
1147,2070,2068,2069,3090,2742,2738,2743,3376,4255,4336
1148,1137,1136,87,3125,1318,1314,1316,3937,4950,4949
1149,2163,2117,2099,3131,2867,2866,2868,3610,4313,3598
1150,73,971,1160,493,1274,1276,1272,552,3514,4231
1151,83,1126,479,3179,1302,4951,578,4687,4688,4894
1152,1151,1022,3106,3207,1736,4935,4866,4867,4952,4653
1153,251,746,733,997,860,862,858,1448,3984,3525
1154,322,2237,2046,729,2486,2488,2484,930,4953,4232
1155,1106,1108,3144,3171,1637,4942,4697,4696,4863,4584
1156,2200,3182,2230,3183,4954,4220,2695,4955,4224,4223
1157,1026,3159,3083,3207,4663,4269,4956,4664,3833,4803
1158,2179,3144,2180,3171,4585,4913,2859,4540,4584,4912
1159,2200,2045,315,3183,2467,2463,2465,4955,4958,4957
1160,2083,3106,2082,3207,4959,4885,2789,4637,4653,4960
1161,2211,507,176,2199,4600,706,2406,2407,4445,2402
1162,176,486,507,2211,707,625,706,2406,4233,4600
1163,745,315,2045,3183,916,2463,4961,4921,4957,4958
1164,1010,1011,1008,3090,1684,1683,1681,4314,3215,4347
1165,2200,315,726,3183,2465,919,4962,4955,4957,4963
1166,1146,3129,1164,3169,4964,4127,1585,4965,4700,4740
1167,2263,2172,2174,3088,2635,3021,2450,4073,4596,4192
1168,1101,1200,1104,3088,1568,1392,1963,4594,4132,4236
1169,743,723,231,3203,802,798,800,4075,4967,4966
1170,1019,1023,1017,3116,1722,1721,1719,4730,4547,4968
1171,1072,3135,1060,3164,4286,4154,1892,4682,4229,4387
1172,1102,3175,1094,3205,4713,4891,1656,4714,4715,4969
1173,2158,3175,2173,3205,4762,4718,2715,4970,4715,4719
1174,1044,3087,1043,3208,4705,4631,1815,4706,4690,4849
1175,727,238,989,3164,821,1413,3588,3459,4802,3589
1176,2121,2123,2183,3094,2941,2944,2943,4452,3304,4021
1177,1024,1020,3106,3206,1733,4668,4971,4972,4875,4876
1178,2085,2087,2086,3146,2806,2805,2802,4264,3347,4266
1179,1044,1194,3131,3208,1816,4130,4704,4706,4773,4692
1180,477,79,1134,508,566,1290,3503,571,570,4024
1181,1031,3132,1029,3142,4973,4182,1769,4974,4186,4185
1182,2064,3085,2177,3101,4975,4433,2718,4976,4460,4487
1183,1022,1024,3106,3206,1734,4971,4935,4938,4972,4876
1184,504,2255,167,482,4977,2375,688,598,4865,689
1185,745,726,315,3183,817,919,916,4921,4963,4957
1186,994,484,91,496,4217,602,1326,4198,607,606
1187,149,2195,2031,491,2321,2326,2325,652,3909,4066
1188,2177,2074,2178,3100,2745,2764,2720,4434,4332,3446
1189,997,756,250,1142,4340,855,1449,1450,4174,1445
1190,2270,3134,2259,3213,4978,3729,2650,4979,3730,3731
1191,2066,3085,2058,3137,4401,4980,2710,4435,4398,4901
1192,2069,2067,2215,3090,2739,2741,2740,4336,4291,3214
1193,3120,3151,2167,3207,4807,4981,4982,3832,4593,4983
1194,1017,1019,3116,3194,1719,4730,4968,4984,4732,4493
1195,1015,1164,1016,3129,1712,1711,1707,3711,4127,4797
1196,1038,1035,1109,3171,1795,1788,1796,4464,3431,3310
1197,3117,3171,2180,3209,3309,4912,4985,4191,4864,4914
1198,734,2256,331,746,4986,2513,951,865,4847,948
1199,2087,3095,2086,3146,3346,4293,2805,3347,3223,4266
1200,2214,3122,2102,3208,4987,4728,2871,4761,4850,4824
1201,2080,2207,3106,3206,2787,4886,4416,4879,4887,4876
1202,70,970,1132,491,1265,1267,1263,539,4081,3904
1203,2058,3085,426,3137,4980,4988,4989,4901,4398,4990
1204,2202,3128,2235,3169,4991,4590,2669,4946,4737,4735
1205,2089,3132,2090,3142,4215,4992,2818,3885,4186,4993
1206,2197,2231,2034,3107,2571,2569,2353,3528,4498,4172
1207,2237,322,753,729,2486,933,4060,4953,930,838
1208,1187,974,3195,3202,1516,4994,4167,4055,4995,4169
1209,1134,973,1169,3107,1294,1509,1512,3505,4158,4294
1210,1026,1025,3083,3159,1743,4406,4956,4663,4351,4269
1211,2081,3106,2083,3207,4658,4959,2788,4659,4653,4637
1212,1166,1034,1143,3173,1790,1781,1791,4197,4019,4119
1213,726,745,1170,3183,817,4920,4996,4963,4921,4922
1214,2196,476,156,2033,3773,666,2346,2347,3500,2342
1215,731,2203,3144,3209,4465,4274,4253,4997,4998,4915
1216,2115,2095,2093,3119,2841,2840,2842,3354,3724,3416
1217,2240,3143,2156,3178,4473,4999,3079,4474,4470,4531
1218,2175,2073,2072,3115,2756,2753,2757,4476,3820,4235
1219,1119,982,229,722,1385,1384,1380,3891,4041,792
1220,1113,3085,1152,3101,4458,5000,1664,4459,4460,4911
1221,2246,2032,2188,3139,2554,2556,2557,4323,3401,4779
1222,2060,57,2064,3101,2306,2302,2307,5001,5002,4976
1223,1090,1087,1089,3086,2001,1999,2002,3735,3552,4638
1224,2156,3178,3143,3196,4531,4470,4999,4532,4533,4647
1225,1134,1064,3184,3185,1911,4047,3538,3506,4048,3540
1226,1176,3151,1210,3207,4947,4806,2028,4832,4593,4809
1227,1074,1185,1073,3139,1944,1943,1937,4563,4432,4359
1228,80,478,1188,3200,573,4772,1295,4868,4748,4613
1229,159,2250,478,3200,2355,4747,673,4843,4576,4748
1230,1076,3191,1078,3197,3965,3342,1955,3742,3324,3344
1231,1057,1058,1055,3094,1874,1873,1871,4455,4325,3294
1232,978,1019,3147,3172,1535,5003,4552,4394,4731,4554
1233,2131,2130,2132,3161,2966,2973,2972,4368,4356,3646
1234,1133,495,78,1134,3853,563,1287,1291,4582,1289
1235,479,502,83,3179,583,582,578,4894,4739,4687
1236,3114,3148,1209,3206,5004,5005,5006,5007,5009,5008
1237,493,1160,73,474,4231,1272,552,553,4115,548
1238,2052,2195,148,491,2323,2322,2318,4845,3909,651
1239,1026,1027,1025,3159,1752,1751,1743,4663,4381,4351
1240,2048,3117,2180,3209,4209,4985,2653,4210,4191,4914
1241,1056,1057,1055,3127,1872,1871,1862,4410,4456,3301
1242,1012,1011,1010,3092,1690,1684,1691,4443,3218,4315
1243,56,2058,2064,3085,2299,2304,2303,5010,4980,4975
1244,1132,991,69,491,1264,1260,1262,3904,4280,540
1245,2208,2136,2139,3096,2992,2999,3001,4180,3660,4383
1246,1131,1075,1071,3096,1941,1940,1931,4181,4385,3638
1247,2202,2078,3128,3129,2769,4316,4991,4945,4511,4505
1248,990,243,729,1122,1424,834,4058,1429,1428,4501
1249,2082,2080,2207,3106,2785,2787,2786,4885,4416,4886
1250,2226,3116,2175,3201,4427,4477,2606,4428,4429,5011
1251,1134,1169,1064,3185,1512,1902,1911,3506,4295,4048
1252,2061,3176,3174,3187,5012,5013,5014,5015,5017,5016
1253,1116,1063,1061,3160,1896,1895,1897,3517,4362,4261
1254,1162,970,71,473,1270,1266,1268,4500,4080,542
1255,2065,2058,2066,3085,2708,2710,2709,3653,4980,4401
1256,973,508,80,3200,4157,569,1293,4757,4750,4868
1257,733,756,250,997,859,855,857,3525,4340,1449
1258,1003,3174,3176,3187,5018,5013,5019,5020,5016,5017
1259,2127,2128,2182,3160,2954,2960,2959,4271,4423,3494
1260,3124,3192,2149,3197,3702,4528,4527,4944,4354,5021
1261,2064,2065,2177,3085,2707,2731,2718,4975,3653,4433
1262,75,494,1189,475,558,5022,1280,554,559,4899
1263,169,2037,2221,506,2381,2386,2385,692,4010,4206
1264,508,2034,159,3200,4171,2351,672,4750,4751,4843
1265,1092,3143,1180,3178,5023,4469,2021,5024,4470,4471
1266,1110,1043,1042,3087,1817,1813,1818,4677,4631,3951
1267,1139,95,483,3114,1340,618,5025,4856,4857,5026
1268,55,2058,426,3137,2300,4989,464,4900,4901,4990
1269,2239,2031,2195,3150,2551,2326,2552,4244,4069,3908
1270,1141,242,729,990,1421,833,4039,1426,1425,4058
1271,747,253,1144,3120,866,1458,5027,5028,4908,4907
1272,1135,3154,1163,3158,5029,4817,1622,5030,4789,4819
1273,1016,3168,3129,3194,4798,3806,4797,5031,5032,4506
1274,2242,2212,2089,3109,2664,2813,2824,3544,4513,3986
1275,1007,999,3085,3137,1651,5033,3856,4397,5034,4398
1276,2098,2099,2100,3131,2853,2861,2860,3972,3598,4277
1277,1147,3086,1088,3177,4639,4725,2005,4627,4685,5035
1278,1082,1083,1084,3097,1976,1982,1981,4404,3912,4125
1279,2065,2068,2177,3100,2734,2736,2731,3656,4256,4434
1280,997,1183,1123,3109,1639,1638,1453,3405,3510,3787
1281,969,1140,226,740,1376,1375,1371,3717,3755,783
1282,731,3144,996,3209,4253,4254,4251,4997,4915,5036
1283,1208,3145,3125,3208,5037,5038,5039,4774,5041,5040
1284,1177,1132,970,3150,1493,1267,1491,4248,3903,4082
1285,2139,2172,2208,3089,3012,2633,3001,4382,4597,4097
1286,1101,1075,1131,3089,1954,1941,1567,4595,4384,4103
1287,507,97,978,1167,620,1344,4393,4543,1346,1348
1288,2069,2071,2070,3092,2747,2746,2743,4337,4218,3383
1289,2229,3112,2107,3154,4785,4820,2902,4787,4786,5042
1290,1093,3136,1115,3166,4379,4450,1500,4534,4451,4283
1291,986,3169,1164,3186,5043,4740,1582,5044,4702,4128
1292,2142,3156,2223,3191,4335,5045,3020,3322,4330,5046
1293,2133,2132,2134,3084,2977,2981,2980,3586,3645,3961
1294,1116,1066,1063,3161,1907,1906,1896,3516,4361,4363
1295,43,1152,429,3101,1244,5047,453,4910,4911,5048
1296,1014,3140,1015,3168,4334,3712,1702,4151,3807,3805
1297,1063,1065,1064,3161,1904,1903,1900,4363,4321,4045
1298,742,229,982,722,794,1384,4144,796,792,4041
1299,473,71,1162,492,542,1268,4500,547,546,3699
1300,2031,2224,150,473,2329,2328,2324,4067,4510,654
1301,733,2204,329,756,4488,2505,947,859,4084,944
1302,1184,1108,980,3209,1548,1545,1444,4441,4855,4189
1303,1009,1111,1010,3090,1687,1686,1682,4448,3377,4314
1304,2249,317,757,2055,2471,920,4767,2473,2469,4766
1305,988,1149,1178,3103,1596,1597,1594,4745,3808,3480
1306,977,1138,92,496,1333,1329,1331,4411,3475,605
1307,2151,2154,2153,3086,3061,3060,3059,3548,3737,4655
1308,2199,3147,2079,3172,4610,5049,2783,4447,4554,4742
1309,1004,1118,224,3167,1370,1369,1365,5050,5052,5051
1310,329,2205,2204,733,2507,2509,2505,947,3526,4488
1311,2156,2155,2158,3175,3069,3075,3074,4529,4420,4762
1312,2096,2099,2098,3093,2854,2853,2852,4421,3632,3971
1313,3147,3148,2236,3206,4553,4906,4878,4877,5009,4880
1314,1054,1201,1127,3099,1869,1868,1867,4724,4930,4721
1315,2107,3121,2234,3154,4821,4793,2894,5042,4794,4795
1316,1196,3109,1153,3159,3842,4799,1760,3843,3799,4800
1317,2111,2110,2112,3091,2910,2915,2914,3879,4508,4240
1318,157,477,2196,2197,669,4621,2345,2349,3529,2350
1319,1146,3128,1018,3129,5053,4303,1717,4964,4505,4504
1320,68,991,1117,490,1259,1261,1257,533,3607,3642
1321,1068,1069,1067,3084,1921,1920,1916,3592,4002,3618
1322,2083,2167,3151,3207,2799,4981,4902,4637,4983,4593
1323,2231,2126,2125,3185,2953,2949,2568,4499,5054,4862
1324,2184,3123,2104,3211,5055,5056,2889,5057,4166,5058
1325,2163,2099,2244,3193,2868,2855,2590,3613,3600,4095
1326,2066,2067,2065,3138,2733,2732,2709,4402,4292,3658
1327,2080,2236,2207,3206,2780,2602,2787,4879,4880,4887
1328,1072,3182,1170,3183,4285,5059,1942,4287,4224,4922
1329,3083,3106,1022,3207,4936,4935,4937,4803,4653,4952
1330,2055,2183,2230,3164,2690,2694,2693,4769,4228,4684
1331,1114,1174,1122,3123,1837,1580,1605,4883,4881,4555
1332,2152,3086,2206,3177,4733,4654,3063,4916,4685,4623
1333,1127,3179,3158,3199,4720,4890,5060,4722,4674,5061
1334,2207,2236,3148,3206,2602,4906,5062,4887,4880,5009
1335,2047,2216,324,3134,2494,2490,2492,4310,5064,5063
1336,1030,1029,1027,3095,1763,1762,1764,3943,4184,4380
1337,484,169,2221,506,693,2385,4203,604,692,4206
1338,2213,2122,2114,3098,2934,2933,2927,4608,4339,3297
1339,2206,2152,2153,3086,3063,3058,3064,4654,4733,4655
1340,998,1156,66,3174,1255,1251,1253,3871,5066,5065
1341,97,507,486,1167,620,625,624,1346,4543,4213
1342,1211,3091,1054,3199,5067,4723,1858,5068,4643,4756
1343,1046,3122,1110,3213,4537,4846,1824,5069,4633,4556
1344,740,1140,226,721,3755,1375,783,787,3791,785
1345,1134,495,78,477,4582,563,1289,3503,568,567
1346,1168,1114,3130,3211,1606,4884,4412,4851,5070,4853
1347,1022,1024,1020,3106,1734,1733,1731,4935,4971,4668
1348,156,495,476,2196,667,565,666,2346,3950,3773
1349,473,2224,150,492,4510,2328,654,547,3719,655
1350,2092,2185,2227,3117,2837,2655,2832,3771,3332,4056
1351,2109,3111,2111,3165,5071,4489,2909,5072,4491,3881
1352,1092,1094,1091,3196,2016,2015,2009,5073,4892,4485
1353,501,81,478,1188,576,572,577,4612,1296,4772
1354,3138,3152,1193,3181,3251,4093,4092,5074,5076,5075
1355,2209,2234,3145,3154,2584,4792,5077,5078,4795,4796
1356,1136,481,87,3125,5079,590,1314,4950,5080,4949
1357,1060,1059,1057,3094,1881,1880,1882,4152,3453,4455
1358,1118,720,224,3167,5081,779,1369,5052,5082,5051
1359,66,471,998,3174,531,3869,1253,5065,3870,3871
1360,2229,3158,2035,3199,4788,5083,2575,5084,5061,5085
1361,1152,3085,429,3101,5000,5086,5047,4911,4460,5048
1362,2097,2098,2179,3093,2851,2857,2856,4579,3971,4539
1363,1192,3134,1107,3144,4088,3803,1577,4089,3794,4111
1364,2243,2164,2038,3133,2591,2395,2592,3451,3234,4195
1365,2229,3154,2198,3158,4787,5087,2578,4788,4789,5088
1366,2109,2108,3111,3211,2899,5089,5071,5090,5091,4346
1367,1089,1088,1147,3086,2000,2005,2004,4638,4725,4639
1368,477,495,157,2196,568,668,669,4621,3950,2345
1369,753,729,243,1122,838,834,836,4301,4501,1428
1370,2187,2113,2186,3099,2929,2918,2572,4872,4481,4672
1371,1031,1029,1030,3142,1769,1763,1770,4974,4185,3942
1372,1209,3114,1139,3148,5006,4856,1631,5005,5004,5092
1373,1195,3114,1209,3206,3982,5006,1632,5093,5007,5008
1374,2117,3131,3125,3208,4313,3609,4312,5094,4692,5040
1375,1192,246,731,996,1433,845,4252,1438,1437,4251
1376,2030,2206,2240,3190,2541,2547,2546,3679,4625,4703
1377,1141,242,752,729,1421,831,3782,4039,833,835
1378,1150,3099,3098,3210,4649,3330,4648,4874,5095,4606
1379,2216,730,324,3134,5096,934,2490,5064,5097,5063
1380,2205,2049,2242,3109,2512,2663,2662,3406,3750,3544
1381,2082,3106,3083,3207,4885,4936,4825,4960,4653,4803
1382,501,478,160,2250,577,674,675,4572,4747,2354
1383,1074,1075,1076,3096,1939,1948,1947,4562,4385,3739
1384,1058,1124,1125,3098,1883,1507,1885,4326,3767,4558
1385,2225,2075,2076,3129,2700,2759,2765,4043,3690,4859
1386,2139,2138,2140,3096,3000,3007,3006,4383,4478,3746
1387,80,508,478,3200,569,574,573,4868,4750,4748
1388,2062,3167,2217,3188,5098,3556,2726,5099,3557,3356
1389,1047,3123,1114,3211,4165,4883,1834,3672,4166,5070
1390,1165,994,1138,3119,1626,1330,1627,3334,4199,3315
1391,1158,1072,1060,3164,1893,1892,1600,4782,4682,4387
1392,2073,3116,2077,3168,4289,4780,2762,3823,4290,5100
1393,1155,3167,1004,3188,3558,5050,1672,3363,3557,5101
1394,1005,41,999,3137,1238,1240,1242,4027,5102,5034
1395,2190,2152,2191,3177,3053,3065,2671,4564,4916,4516
1396,2058,56,426,3085,2299,465,4989,4980,5010,4988
1397,1046,1043,1110,3122,1823,1817,1824,4537,4629,4846
1398,2077,2226,2079,3194,2774,2773,2772,4781,4494,4743
1399,2111,2109,2110,3111,2909,2905,2910,4489,5071,4509
1400,1183,1030,1153,3109,1775,1765,1776,3510,4096,4799
1401,317,757,727,2249,920,823,923,2471,4767,3457
1402,1176,3128,1145,3151,4831,4834,2026,4947,4589,4833
1403,1048,3112,1163,3154,4870,4818,1843,5103,4786,4817
1404,2088,2090,2089,3132,2819,2818,2812,4358,4992,4215
1405,1211,1051,3091,3199,1848,4617,5067,5068,5104,4643
1406,1168,3165,1050,3211,4413,5105,1853,4851,4852,5106
1407,2254,475,154,2166,3721,662,2340,2341,3707,2336
1408,429,3085,2064,3101,5086,4975,5107,5048,4460,4976
1409,752,321,2171,2046,928,2481,4311,3816,2483,2485
1410,1013,1010,1111,3092,1693,1686,1694,4525,4315,3382
1411,2128,2129,2130,3161,2956,2964,2963,4424,4146,4356
1412,2124,3127,2183,3164,3566,4020,2691,3567,3280,4228
1413,1096,3175,1102,3176,4925,4713,1668,5108,4712,4711
1414,2160,2173,3175,3176,2721,4718,4927,5109,4717,4712
1415,1050,3111,1047,3211,5110,4344,1841,5106,4346,3672
1416,2131,2182,2128,3161,2967,2960,2965,4368,3493,4424
1417,1092,3143,3178,3196,5023,4470,5024,5073,4647,4533
1418,2110,3091,3111,3199,4508,4490,4509,4895,4643,5111
1419,1150,1125,992,3098,1613,1612,1614,4648,4558,4605
1420,1021,1151,1022,3106,1737,1736,1732,4650,4866,4935
1421,978,3147,1175,3148,4552,5112,1537,4391,4553,5113
1422,3098,3099,2213,3210,3330,4609,4608,4606,5095,5114
1423,508,159,478,3200,672,673,574,4750,4843,4748
1424,1073,1071,1074,3096,1934,1938,1937,3934,3638,4562
1425,41,426,999,3137,451,5115,1240,5102,4990,5034
1426,2138,2136,2137,3096,2997,2993,2998,4478,3660,4016
1427,1103,1015,1100,3140,1713,1704,1714,3625,3712,4388
1428,2270,2259,2103,3213,2650,2876,2885,4979,3731,4566
1429,1078,1161,3156,3191,1960,5116,4329,3342,5117,4330
1430,162,502,2248,2035,679,4839,2360,2364,4838,2365
1431,977,92,485,496,1331,609,4343,4411,605,610
1432,2116,3123,2268,3157,5118,4520,2936,5119,4521,4212
1433,3158,3179,2035,3199,4890,4841,5083,5061,4674,5085
1434,2037,2244,2095,3118,2589,2588,2587,4430,4094,3723
1435,2083,2081,2082,3106,2788,2784,2789,4959,4658,4885
1436,1062,1063,1064,3185,1894,1900,1899,3472,4364,4048
1437,1145,3128,1146,3169,4834,5053,1584,4835,4737,4965
1438,2051,2238,2190,3103,2674,2673,2672,4776,3536,3877
1439,2214,2105,3122,3208,2882,4681,4987,4761,5120,4850
1440,2214,2105,2102,3122,2882,2881,2871,4987,4681,4728
1441,1060,3127,1191,3164,4153,3569,1602,4387,3280,3570
1442,1127,993,3158,3179,1619,4889,5060,4720,4686,4890
1443,2125,2122,2165,3098,2946,2947,2566,3769,4339,4568
1444,2140,2142,3191,3197,3015,3322,3966,3748,3323,3324
1445,1127,3158,1163,3199,5060,4819,1620,4722,5061,5121
1446,1186,979,3163,3201,1543,5122,3897,4896,5123,4898
1447,2117,2214,3131,3208,2579,4869,4313,5094,4761,4692
1448,1198,1088,3153,3177,2006,4726,4689,4635,5035,4565
1449,1055,1058,1150,3098,1873,1875,1866,3295,4326,4648
1450,732,249,1142,980,852,1446,3863,4188,1442,1447
1451,2232,2133,2169,3204,2979,2987,2636,4848,3299,3649
1452,1094,3175,3178,3205,4891,4530,5124,4969,4715,3360
1453,2158,3178,3175,3205,4763,4530,4762,4970,3360,4715
1454,2050,2202,2235,3169,2667,2669,2666,4904,4946,4735
1455,1099,234,744,725,1401,807,3919,4408,809,811
1456,2170,2070,2071,3140,2614,2746,2751,3996,3390,4219
1457,1175,3147,1020,3206,5112,4669,1729,5125,4877,4875
1458,2076,3129,3168,3194,4859,3806,4860,5126,4506,5032
1459,490,68,991,472,533,1259,3607,538,537,3270
1460,1068,1172,1099,3204,1918,1570,1928,3326,4804,3687
1461,1014,1012,1013,3092,1698,1692,1699,4150,4443,4525
1462,2048,2245,327,755,2503,2499,2501,4522,4548,940
1463,1136,3125,1208,3145,4950,5039,2024,5127,5038,5037
1464,1144,747,3120,3151,5027,5028,4907,5128,5129,4807
1465,2082,3083,2084,3207,4825,4749,2793,4960,4803,4279
1466,2086,2089,2212,3159,2811,2813,2804,4267,3886,4514
1467,1022,3083,1024,3206,4937,5130,1734,4938,4827,4972
1468,2148,2147,2146,3097,3040,3036,3041,4120,3953,4523
1469,2083,3120,2167,3207,5131,4982,2799,4637,3832,4983
1470,1166,1109,1034,3117,1550,1789,1790,4196,3308,3813
1471,1036,1182,1128,3118,1797,1528,1624,3630,3923,4492
1472,1011,1130,1193,3152,1697,1662,1685,3249,4570,4093
1473,1058,1059,1124,3094,1879,1884,1883,4325,3453,3352
1474,1038,1037,1035,3093,1794,1793,1795,4463,4502,3461
1475,1129,1181,977,3133,1534,1533,1336,3233,3499,4258
1476,757,1158,3164,3182,4801,4782,4768,5132,4783,4683
1477,1080,1083,3149,3155,1977,4176,3420,3419,3651,3371
1478,1179,998,1117,3102,1646,1258,1647,4135,3868,3643
1479,2219,55,428,3137,2296,462,4083,4033,4900,3591
1480,2241,2192,2057,3102,2706,2317,2704,4139,3606,3931
1481,2225,2202,2201,3169,2770,2668,2701,4701,4946,4940
1482,1025,3083,3146,3206,4406,4265,4349,5133,4827,5134
1483,2074,2068,2070,3100,2744,2742,2610,4332,4256,3379
1484,1210,1144,3120,3151,1554,4907,4808,4806,5128,4807
1485,1051,3111,3091,3199,4618,4490,4617,5104,5111,4643
1486,1039,1040,1037,3093,1802,1801,1799,4113,3596,4502
1487,2149,2188,3124,3197,3032,4778,4527,5021,5135,4944
1488,2186,2229,2035,3199,2576,2575,2574,4673,5084,5085
1489,249,756,732,1142,854,856,852,1446,4174,3863
1490,56,2064,429,3085,2303,5107,466,5010,4975,5086
1491,1005,428,41,3137,4230,447,1238,4027,3591,5102
1492,479,162,502,2248,678,679,583,4893,2360,4839
1493,1085,3124,1148,3197,4436,4928,1973,4943,4944,5136
1494,2062,303,2193,3167,2425,2427,2429,5098,5138,5137
1495,2123,2126,2127,3160,2948,2951,2950,3306,3307,4271
1496,2235,2083,2167,3151,2791,2799,2665,4588,4902,4981
1497,487,178,2247,3201,711,2412,5139,5140,5142,5141
1498,1199,1103,749,257,1471,3696,4004,1470,1466,878
1499,726,1170,3182,3183,4996,5059,5143,4963,4922,4224
1500,1139,3114,483,3148,4856,5026,5025,5092,5004,5144
1501,1007,1009,1008,3090,1678,1677,1675,3855,4448,4347
1502,57,429,2064,3101,467,5107,2302,5002,5048,4976
1503,2057,145,2218,3174,2313,2309,2314,3933,5146,5145
1504,1081,1079,3149,3192,1969,3875,5147,5148,4407,4353
1505,723,742,1207,3203,799,4770,5149,4967,4665,4771
1506,1016,3129,1018,3194,4797,4504,1716,5031,4506,4306
1507,1046,3123,3122,3213,4538,4164,4537,5069,5150,4633
1508,2147,2144,3149,3155,3035,3373,4259,3734,3372,3371
1509,723,2269,742,3203,5151,4811,799,4967,4812,4665
1510,2086,2088,2089,3095,2809,2812,2811,4293,4357,3883
1511,1173,3121,975,3145,5152,4933,1521,5153,4791,4932
1512,2167,2256,332,3120,2518,2514,2516,4982,4744,5154
1513,95,995,505,3114,1338,4784,614,4857,4583,5155
1514,2140,3139,2188,3197,4177,4779,3008,3748,4161,5135
1515,1085,1079,3192,3197,1971,4407,4437,4943,3876,4354
1516,2061,3174,2218,3187,5014,5145,2723,5015,5016,5156
1517,2092,3142,2090,3189,4327,4993,2827,3772,4328,5157
1518,2120,2114,2121,3127,2926,2931,2930,4365,3302,4453
1519,1003,1156,3174,3187,1669,5066,5018,5020,5158,5016
1520,739,303,2062,3167,891,2425,5159,5160,5138,5098
1521,2199,2236,2079,3147,2600,2781,2783,4610,4878,5049
1522,171,2222,2038,485,2387,2392,2391,697,4512,4341
1523,2157,2210,3136,3166,2559,4536,4377,4475,4371,4451
1524,1161,3191,1077,3203,5117,4753,1961,5161,4816,4844
1525,1111,1009,1112,3100,1687,1688,1591,3380,4449,4246
1526,2181,3132,2243,3133,3866,4496,2595,3682,4497,3451
1527,1025,1024,3083,3206,1741,5130,4406,5133,4972,4827
1528,1096,1003,3174,3176,1667,5018,4924,5108,5019,5013
1529,730,3134,2216,3157,5097,5064,5096,5162,5164,5163
1530,2160,3174,2061,3176,4926,5014,2722,5109,5013,5012
1531,2143,2145,3149,3192,3029,5165,3925,4352,5166,4353
1532,2175,2077,2073,3116,2763,2762,2756,4477,4780,4289
1533,1154,3101,1002,3212,3560,4909,1666,3425,3561,5167
1534,1048,975,3121,3154,1518,4933,4871,5103,4934,4794
1535,1105,1186,3115,3201,1542,3896,4917,5168,4896,4897
1536,2085,3146,3083,3206,4264,4265,4263,4828,5134,4827
1537,2035,3158,502,3179,5083,4888,4838,4841,4890,4739
1538,429,1152,42,3085,5047,1243,454,5086,5000,5169
1539,41,428,426,3137,447,452,451,5102,3591,4990
1540,171,2222,485,496,2387,4512,697,696,3476,610
1541,1137,87,504,3125,1316,594,3948,3937,4949,3949
1542,1202,750,1154,260,4050,3985,1480,1475,885,1479
1543,246,731,754,1192,845,847,843,1433,4252,4086
1544,1073,3113,1093,3166,3946,4378,1936,3935,3947,4534
1545,2248,3179,479,3210,4840,4894,4893,5170,5172,5171
1546,236,984,1170,745,1403,1408,1407,813,4919,4920
1547,981,253,734,3120,1454,864,3927,3929,4908,3930
1548,2094,2097,2185,3171,2846,2848,2838,3432,4580,3331
1549,2167,332,747,3120,2516,953,5173,4982,5154,5028
1550,1100,1013,1111,3140,1705,1694,1588,4388,4526,3392
1551,2097,2094,2096,3093,2846,2844,2847,4579,3462,4421
1552,1055,1054,1053,3091,1860,1857,1861,3362,4723,4296
1553,2072,2215,2176,3115,2750,2688,2758,4235,3226,4707
1554,311,2044,2263,3088,2453,2455,2449,5174,4822,4073
1555,1211,3111,1051,3199,5175,4618,1848,5068,5111,5104
1556,1148,971,1185,3139,1496,1494,1498,4929,3399,4432
1557,481,3125,1136,3145,5080,4950,5079,5176,5038,5127
1558,986,1146,1164,3169,1583,1585,1582,5043,4965,4740
1559,2207,2236,2039,3148,2602,2601,2596,5062,4906,5177
1560,1015,1103,1164,3186,1713,1581,1712,3713,3626,4128
1561,1004,224,739,3167,1365,777,5178,5050,5051,5160
1562,999,426,3085,3137,5115,4988,5033,5034,4990,4398
1563,1081,3150,1162,3192,5179,3844,1490,5148,3846,3701
1564,2140,2141,2139,3089,3011,3010,3006,3747,4813,4382
1565,1009,1007,1113,3100,1678,1680,1679,4449,3857,4457
1566,1076,1075,1077,3089,1948,1952,1951,3741,4384,4752
1567,743,311,2263,3088,908,2449,4074,4072,5174,4073
1568,2189,2223,2142,3156,2626,3020,3026,4109,5045,4335
1569,3122,3123,2104,3213,4164,5056,5180,4633,5150,5181
1570,1210,3120,1196,3207,4808,3841,1556,4809,3832,3865
1571,2145,2239,3149,3150,2550,4482,5165,5182,4244,4483
1572,1113,1007,1152,3085,1680,1652,1664,4458,3856,5000
1573,1039,3093,1038,3198,4113,4463,1800,4114,3975,4645
1574,2105,2106,2104,3122,2888,2887,2880,4681,3764,5180
1575,475,154,494,2254,662,663,559,3721,2340,3818
1576,3086,3153,1088,3177,4123,4726,4725,4685,4565,5035
1577,1195,3146,3114,3206,3983,3248,3982,5093,5134,5007
1578,752,321,2046,729,928,2483,3816,835,931,4232
1579,1047,1045,1046,3122,1830,1822,1831,3671,4662,4537
1580,145,489,2218,3174,643,5183,2309,5146,5184,5145
1581,2200,726,3182,3183,4962,5143,4954,4955,4963,4224
1582,2207,3148,2039,3206,5062,5177,2596,4887,5009,5185
1583,174,2257,2039,3114,2396,2401,2400,5186,4699,5187
1584,2186,2035,3179,3199,2574,4841,4670,4673,5085,4674
1585,1187,1052,974,3202,1515,1513,1516,4055,3959,4995
1586,2057,471,145,3174,3932,645,2313,3933,3870,5146
1587,1209,3148,1175,3206,5005,5113,1749,5008,5009,5125
1588,3147,3172,1019,3194,4554,4731,5003,4418,4495,4732
1589,1118,3167,1180,3190,5052,4468,1483,5188,4676,4675
1590,1007,1006,999,3137,1650,1649,1651,4397,4678,5034
1591,2255,166,2036,3125,2376,2372,2377,4709,5190,5189
1592,1163,1127,993,3158,1620,1619,1621,4819,5060,4889
1593,2060,427,57,3101,5191,468,2306,5001,5192,5002
1594,983,232,1200,3088,1395,1389,1396,4836,5193,4132
1595,720,2193,303,3167,5194,2427,895,5082,5137,5138
1596,757,3164,2055,3182,4768,4769,4766,5132,4683,4905
1597,2076,2078,3129,3194,2766,4511,4859,5126,4318,4506
1598,2036,3145,2234,3208,5195,4792,2583,5196,5041,5197
1599,2039,3148,3114,3206,5177,5004,5187,5185,5009,5007
1600,2258,306,2051,3104,2434,2436,2438,4578,5198,4777
1601,739,224,720,3167,777,779,781,5160,5051,5082
1602,1156,489,66,3174,5199,527,1251,5066,5184,5065
1603,2141,3191,2223,3203,4814,5046,3019,4815,4816,5200
1604,1002,43,427,3101,1246,457,5201,4909,4910,5192
1605,494,2254,155,3136,3818,2339,664,3819,3722,5202
1606,2213,2114,2113,3099,2927,2924,2928,4609,3276,4481
1607,1048,1163,1135,3154,1843,1622,1519,5103,4817,5029
1608,1149,1198,1088,3153,1598,2006,1994,3809,4689,4726
1609,2245,2048,2180,3209,2503,2653,2654,4549,4210,4914
1610,2246,2166,2032,3113,2553,2338,2554,4322,3706,3397
1611,2259,3144,2179,3198,3795,4585,2877,3728,3796,4542
1612,1192,1107,996,3144,1577,1635,1438,4089,4111,4254
1613,1185,971,1098,3113,1494,1279,1495,4431,3398,3664
1614,2174,2269,723,3203,2452,5151,5203,4193,4812,4967
1615,1108,1109,3117,3171,1547,3308,4854,4863,3310,3309
1616,2153,2156,3143,3196,3068,4999,4656,4710,4532,4647
1617,1080,1083,1082,3149,1977,1976,1975,3420,4176,4405
1618,174,2039,483,3114,2400,5204,703,5186,5187,5026
1619,1015,1014,1013,3140,1702,1699,1703,3712,4334,4526
1620,2161,2208,3110,3170,2630,4615,3414,3415,4100,3245
1621,479,1126,82,3210,4951,1301,579,5171,5206,5205
1622,166,481,2036,3125,686,5207,2372,5190,5080,5189
1623,984,3183,745,3204,4923,4921,4919,5208,4805,5209
1624,720,3167,1118,3190,5082,5052,5081,5210,4676,5188
1625,1042,3087,1041,3198,3951,4438,1808,3858,3760,4375
1626,2162,2215,2067,3138,2684,2741,2737,4758,3230,4292
1627,1114,1047,1046,3123,1834,1831,1835,4883,4165,4538
1628,2110,3111,2108,3199,4509,5089,2906,4895,5111,5211
1629,489,471,66,3174,532,531,527,5184,3870,5065
1630,1191,1060,1057,3127,1602,1882,1876,3569,4153,4456
1631,1110,1107,3134,3213,1575,3803,5212,4556,3804,3730
1632,2198,2229,2107,3154,2578,2902,2904,5087,4787,5042
1633,2175,3116,3115,3201,4477,4288,4476,5011,4429,4897
1634,1161,982,3156,3203,1559,4042,5116,5161,4666,4667
1635,155,2254,2033,3136,2339,2344,2343,5202,3722,3501
1636,734,332,2256,3120,950,2514,4986,3930,5154,4744
1637,2253,2044,312,3110,2458,2454,2456,4030,4823,5213
1638,2184,2104,2106,3211,2889,2887,2890,5057,5058,3766
1639,2240,2156,2159,3178,3079,3078,3080,4474,4531,3917
1640,2209,2107,2234,3154,2903,2894,2584,5078,5042,4795
1641,479,3179,1126,3210,4894,4688,4951,5171,5172,5206
1642,2137,2157,3113,3166,2995,4376,4015,4017,4475,3947
1643,1025,3146,1024,3206,4349,5214,1741,5133,5134,4972
1644,227,721,1140,3104,786,3791,1374,5215,3792,3756
1645,1181,3132,1032,3133,4507,3895,1532,3499,4497,3652
1646,1168,1050,1114,3211,1853,1842,1606,4851,5106,5070
1647,2123,2127,2183,3135,2950,2952,2944,3709,4270,4022
1648,2216,3134,2270,3157,5064,4978,2648,5163,5164,5216
1649,721,306,2258,3104,898,2434,4939,3792,5198,4578
1650,1102,381,13,3176,5217,405,1228,4711,5219,5218
1651,2040,2226,2175,3201,2607,2606,2605,4179,4428,5011
1652,755,327,2048,732,940,2501,4522,853,943,4208
1653,1050,1049,1047,3111,1840,1839,1841,5110,4598,4344
1654,2257,174,505,3114,2396,702,4948,4699,5186,5155
1655,2117,3125,2214,3208,4312,5220,2579,5094,5040,4761
1656,741,3103,2051,3104,5221,4776,5222,5223,4006,4777
1657,2060,3101,2178,3212,5001,3584,2719,5224,3561,3447
1658,2182,2200,2230,3183,2638,2695,2962,3496,4955,4223
1659,743,1200,232,3088,4131,1389,801,4072,4132,5193
1660,498,178,487,3201,710,711,631,3852,5142,5140
1661,1174,3123,1046,3213,4881,4538,1836,5225,5150,5069
1662,2066,3138,3137,3181,4402,4399,4435,5226,5074,3291
1663,1034,1031,3142,3189,1780,4974,4390,3814,5227,4328
1664,1189,76,972,3136,1281,1283,1285,4462,5228,3486
1665,2167,3120,747,3151,4982,5028,5173,4981,4807,5129
1666,2197,3184,2129,3185,3554,4148,2970,3530,3540,4173
1667,2189,2142,2144,3155,3026,3024,3027,4107,3320,3372
1668,166,2255,504,3125,2376,4977,687,5190,4709,3949
1669,734,253,747,3120,864,866,868,3930,4908,5028
1670,1044,1194,1041,3131,1816,1811,1814,4704,4130,4374
1671,996,3144,1108,3209,4254,4942,1636,5036,4915,4855
1672,426,428,55,3137,452,462,464,4990,3591,4900
1673,161,2248,479,3210,2361,4893,677,5229,5170,5171
1674,745,3183,2045,3204,4921,4958,4961,5209,4805,5230
1675,1081,3149,1177,3150,5147,4486,1492,5179,4483,4248
1676,1089,3143,1092,3196,4641,5023,2010,4646,4647,5073
1677,2039,483,3114,3148,5204,5026,5187,5177,5144,5004
1678,178,2040,2247,3201,2408,2413,2412,5142,4179,5141
1679,1151,3083,1022,3207,5231,4937,1736,4867,4803,4952
1680,2051,306,741,3104,2436,901,5222,4777,5198,5223
1681,1211,1054,1127,3199,1858,1867,1870,5068,4756,4722
1682,2270,3157,3134,3213,5216,5164,4978,4979,5232,3730
1683,56,429,426,3085,466,455,465,5010,5086,4988
1684,2159,2217,2062,3167,2716,2726,2725,3916,3556,5098
1685,1004,1155,1095,3167,1672,1657,1670,5050,3558,3914
1686,1189,494,76,3136,5022,557,1281,4462,3819,5228
1687,2109,2106,2108,3211,2898,2896,2899,5090,3766,5091
1688,2103,2101,2102,3087,2873,2869,2874,4620,3761,4727
1689,87,481,504,3125,590,595,594,4949,5080,3949
1690,2047,2259,3134,3144,2646,3729,4310,4275,3795,3794
1691,2036,3125,481,3145,5189,5080,5207,5195,5038,5176
1692,2082,2084,2083,3207,2793,2792,2789,4960,4279,4637
1693,745,1170,236,726,4920,1407,813,817,4996,815
1694,95,505,483,3114,614,619,618,4857,5155,5026
1695,2034,3107,2165,3200,4172,4567,2565,4751,4561,4569
1696,2036,2214,3125,3208,2580,5220,5189,5196,4761,5040
1697,2036,3125,3145,3208,5189,5038,5195,5196,5040,5041
1698,2143,2149,3192,3197,3031,4528,4352,3926,5021,4354
1699,2259,2179,2101,3198,2877,2864,2875,3728,4542,3759
1700,2207,2039,3114,3206,2596,5187,5233,4887,5185,5007
1701,720,303,739,3167,895,891,781,5082,5138,5160
1702,1174,985,3157,3213,1579,5234,4882,5225,5235,5232
1703,1192,245,985,3134,1434,1430,1435,4088,5237,5236
1704,2141,2174,2172,3089,3022,3021,3013,4813,4372,4597
1705,754,245,1192,3134,842,1434,4086,4087,5237,4088
1706,739,3167,2062,3188,5160,5098,5159,5238,3557,5099
1707,1001,1193,3152,3181,1660,4093,5239,5240,5075,5076
1708,1092,1180,1095,3178,2021,2020,2019,5024,4471,3915
1709,2093,2090,3132,3189,2829,4992,3429,3418,5157,3422
1710,1077,1101,1104,3089,1953,1963,1962,4752,4595,4400
1711,1151,1026,3083,3207,1745,4956,5231,4867,4664,4803
1712,381,3176,1102,3205,5219,4711,5217,5241,4716,4714
1713,2079,3172,3147,3194,4742,4554,5049,4743,4495,4418
1714,2047,324,754,3134,2492,937,4272,4310,5063,4087
1715,1161,1207,982,3203,1561,1388,1559,5161,4771,4666
1716,1097,3110,1131,3170,3448,4616,1563,3449,3245,4105
1717,1201,3099,1150,3210,4930,4649,1617,5242,5095,4874
1718,2173,3176,381,3205,4717,5219,5243,4719,4716,5241
1719,1033,3132,1031,3189,3367,4973,1778,3388,3422,5227
1720,2180,3144,2203,3209,4913,4274,3081,4914,4915,4998
1721,29,384,2217,2059,421,3777,2292,2290,3898,2294
1722,2144,2146,2147,3149,3033,3036,3035,3373,4524,4259
1723,1161,1120,1078,3156,1560,1968,1960,5116,4227,4329
1724,1043,1044,1041,3087,1815,1814,1812,4631,4705,4438
1725,1023,1105,3116,3201,1723,4918,4547,4518,5168,4429
1726,2124,2121,2183,3127,2940,2943,2691,3566,4453,4020
1727,1007,1008,1006,3138,1675,1674,1650,3860,4348,4679
1728,1022,1151,1026,3083,1736,1745,1744,4937,5231,4956
1729,429,42,426,3085,454,450,455,5086,5169,4988
1730,499,3152,1130,3163,5244,4570,5245,5246,3252,4571
1731,145,471,489,3174,645,532,643,5146,3870,5184
1732,2140,2138,2188,3139,3007,3009,3008,4177,4479,4779
1733,2085,2207,3146,3206,2796,5247,4264,4828,4887,5134
1734,1084,1083,1149,3153,1982,1987,1986,4126,3650,3809
1735,988,3103,741,3104,4745,5221,5248,4746,4006,5223
1736,2117,2214,2100,3131,2579,2872,2865,4313,4869,4277
1737,1175,3148,3147,3206,5113,4553,5112,5125,5009,4877
1738,1018,3147,1019,3194,4577,5003,1720,4306,4418,4732
1739,1051,3111,1050,3165,4618,5110,1846,4619,4491,5105
1740,972,76,476,3136,1283,561,3488,3486,5228,3487
1741,983,724,3088,3110,5249,5250,4836,4837,5251,4614
1742,2228,3165,3130,3211,3980,3979,3978,5252,4852,4853
1743,2180,3117,2185,3171,4985,3332,2651,4912,3309,3331
1744,3112,3158,2229,3199,4790,4788,4785,5253,5061,5084
1745,2224,3150,2145,3192,3861,5182,2548,3720,3846,5166
1746,2193,2240,3167,3190,2545,4472,5137,5254,4703,4676
1747,1025,1024,1022,3083,1741,1734,1742,4406,5130,4937
1748,2051,741,307,3103,5222,900,2437,4776,5221,5255
1749,754,324,730,3134,937,934,844,4087,5063,5097
1750,1172,3183,984,3204,4587,4923,1569,4804,4805,5208
1751,1103,736,749,257,4319,880,3696,1466,876,878
1752,42,1152,999,3085,1243,1245,1241,5169,5000,5033
1753,1094,1102,1096,3175,1656,1668,2018,4891,4713,4925
1754,1146,1145,1176,3128,1584,2026,1739,5053,4834,4831
1755,2158,2160,2173,3175,3076,2721,2715,4762,4927,4718
1756,312,744,2253,3110,913,4029,2456,5213,3918,4030
1757,734,747,332,3120,868,953,950,3930,5028,5154
1758,1120,982,1119,3156,1557,1385,1558,4227,4042,3893
1759,2201,748,335,3186,5256,956,2523,4941,5258,5257
1760,1148,3139,1076,3197,4929,4159,1950,5136,4161,3742
1761,978,1139,96,3148,1345,1341,1343,4391,5092,5259
1762,992,82,1126,3210,1299,1301,1303,4607,5205,5206
1763,1125,3107,973,3200,4557,4158,1508,4560,4561,4757
1764,1025,1195,1024,3146,1748,1747,1741,4349,3983,5214
1765,2247,3163,487,3201,5260,5261,5139,5141,4898,5140
1766,1070,1093,1115,3166,1935,1500,1924,3999,4534,4283
1767,2036,2234,2214,3208,2583,2585,2580,5196,5197,4761
1768,1067,1115,1065,3105,1915,1914,1912,3620,4281,4320
1769,2130,2210,2132,3105,2975,2974,2973,4355,4369,3644
1770,43,429,427,3101,453,458,457,4910,5048,5192
1771,3121,3122,2105,3208,3670,4681,4680,5262,4850,5120
1772,2173,381,28,3205,5243,419,2287,4719,5241,5263
1773,1037,1036,1035,3118,1792,1787,1793,4503,3630,3456
1774,2088,2243,2181,3132,2814,2595,2821,4358,4496,3866
1775,1195,1024,3146,3206,1747,5214,3983,5093,4972,5134
1776,227,988,741,3104,1378,5248,788,5215,4746,5223
1777,1173,3145,1208,3208,5153,5037,1828,5264,5041,4774
1778,2098,2101,2179,3198,2862,2864,2857,3973,3759,4542
1779,1054,1055,1150,3099,1860,1866,1865,4724,3329,4649
1780,488,3152,2251,3181,5265,5266,5267,5268,5076,5269
1781,1024,1175,1020,3206,1735,1729,1733,4972,5125,4875
1782,2228,2109,3165,3211,2911,5072,3980,5252,5090,4852
1783,1193,1006,3138,3181,1661,4679,4092,5075,5270,5074
1784,227,1140,988,3104,1374,1379,1378,5215,3756,4746
1785,427,3101,2060,3212,5192,5001,5191,5271,3561,5224
1786,2080,2081,2078,3106,2778,2777,2775,4416,4658,4317
1787,2128,3160,2126,3185,4423,3307,2955,4660,3473,5054
1788,2161,2208,2044,3110,2630,2629,2631,3414,4615,4823
1789,1042,1041,1039,3198,1808,1807,1809,3858,4375,4114
1790,99,487,979,3201,630,5272,1352,5273,5140,5123
1791,2095,2221,2037,3119,2586,2386,2587,3724,4204,4009
1792,2175,3115,2176,3201,4476,4707,2604,5011,4897,5274
1793,503,3145,975,3154,5275,4932,5276,5277,4796,4934
1794,2218,3174,489,3187,5145,5184,5183,5156,5016,5278
1795,1021,1020,1018,3106,1726,1725,1727,4650,4668,4305
1796,247,996,1184,3209,1436,1441,1440,5279,5036,4441
1797,42,999,426,3085,1241,5115,450,5169,5033,4988
1798,166,504,481,3125,687,595,686,5190,3949,5080
1799,227,741,721,3104,788,790,786,5215,5223,3792
1800,2168,3126,2120,3195,3827,4461,2620,4535,4168,4366
1801,2152,3153,3086,3177,4734,4123,4733,4916,4565,4685
1802,1201,3179,3099,3210,4931,4671,4930,5242,5172,5095
1803,2105,2234,3121,3208,2895,4793,4680,5120,5197,5262
1804,174,483,505,3114,703,619,702,5186,5026,5155
1805,2223,3156,2043,3203,5045,4693,2627,5200,4667,4695
1806,2202,3129,3128,3169,4945,4505,4991,4946,4700,4737
1807,1154,1113,1002,3101,1665,1663,1666,3560,4459,4909
1808,2090,2092,2091,3142,2827,2826,2823,4993,4327,4162
1809,2162,3138,2066,3181,4758,4402,2727,5280,5074,5226
1810,2119,2212,2049,3109,2659,2658,2660,3798,4513,3750
1811,2145,2239,2146,3149,2550,3038,3034,5165,4482,4524
1812,983,1190,233,3110,1399,1398,1394,4837,3977,5281
1813,1096,1003,1156,3174,1667,1669,1644,4924,5018,5066
1814,1135,993,84,3158,1309,1305,1307,5030,4889,5282
1815,2160,2218,2061,3174,2702,2723,2722,4926,5145,5014
1816,2112,2114,2120,3126,2923,2926,2925,4241,3277,4461
1817,101,1130,499,3152,1356,5245,632,5283,4570,5244
1818,1116,1072,1170,3183,1898,1942,1572,3518,4287,4922
1819,178,498,2040,3201,710,4178,2408,5142,3852,4179
1820,247,731,996,3209,846,4251,1436,5279,4997,5036
1821,720,2193,3167,3190,5194,5137,5082,5210,5254,4676
1822,741,306,721,3104,901,898,790,5223,5198,3792
1823,86,975,503,3145,1311,5276,587,5284,4932,5275
1824,2041,2074,2070,3180,2611,2610,2612,4755,4333,3393
1825,1045,3122,3121,3208,4662,3670,4661,5285,4850,5262
1826,2203,2180,2179,3144,3081,2859,3082,4274,4913,4585
1827,155,2033,476,3136,2343,3500,665,5202,3501,3487
1828,1136,975,86,3145,1315,1311,1313,5127,4932,5284
1829,1014,1105,1012,3115,1701,1700,1698,4149,4917,4444
1830,2056,2201,335,3186,2527,2523,2525,3521,4941,5257
1831,1195,1209,1024,3206,1632,1750,1747,5093,5008,4972
1832,2054,2176,2215,3163,2689,2688,2685,4765,4708,3237
1833,2041,3141,737,3180,4754,5286,5287,4755,3430,5288
1834,181,488,2251,3181,716,5267,2417,5289,5268,5269
1835,1054,1211,1051,3091,1858,1848,1856,4723,5067,4617
1836,99,498,487,3201,626,631,630,5273,3852,5140
1837,2094,2095,2096,3118,2839,2845,2844,3455,3723,4422
1838,384,382,29,2217,413,424,421,3777,3563,2292
1839,2110,2108,2186,3199,2906,2908,2907,4895,5211,4673
1840,1110,3134,985,3213,5212,5236,1576,4556,3730,5235
1841,2178,2060,2177,3101,2719,2717,2720,3584,5001,4487
1842,3128,3129,1146,3169,4505,4964,5053,4737,4700,4965
1843,730,985,245,3134,5290,1430,840,5097,5236,5237
1844,2054,3152,499,3163,4764,5244,5291,4765,3252,5246
1845,983,233,724,3110,1394,804,5249,4837,5281,5251
1846,494,476,76,3136,562,561,557,3819,3487,5228
1847,502,84,993,3158,581,1305,4738,4888,5282,4889
1848,100,499,1130,3163,633,5245,1355,5292,5246,4571
1849,1145,254,1144,3151,1461,1457,1462,4833,5293,5128
1850,1039,1038,1106,3198,1800,1804,1803,4114,4645,4698
1851,1055,1053,1056,3126,1861,1863,1862,3327,4297,4409
1852,2105,2107,2106,3121,2893,2892,2888,4680,4821,3765
1853,1080,1078,1120,3155,1966,1968,1967,3419,3343,4225
1854,1209,995,1139,3114,1630,1342,1631,5006,4583,4856
1855,27,381,2173,3176,420,5243,2286,5294,5219,4717
1856,1106,1038,1108,3171,1804,1805,1637,4696,4464,4863
1857,1147,1092,1089,3143,2011,2010,2004,4626,5023,4641
1858,1102,13,1003,3176,1228,1224,1229,4711,5218,5019
1859,2166,2137,2157,3113,3004,2995,3005,3706,4015,4376
1860,1073,1098,1093,3113,1946,1945,1936,3946,3664,4378
1861,1174,3157,3123,3213,4882,4521,4881,5225,5232,5150
1862,14,381,1102,3205,406,5217,1227,5295,5241,4714
1863,1147,1198,969,3177,1488,1485,1486,4627,4635,3693
1864,2045,3183,2232,3204,4958,4551,2637,5230,4805,4848
1865,2044,3088,724,3110,4822,5250,5296,4823,4614,5251
1866,483,96,1139,3148,617,1341,5025,5144,5259,5092
1867,1105,979,1186,3201,1540,1543,1542,5168,5123,4896
1868,1107,1106,3144,3198,1634,4697,4111,3802,4698,3796
1869,978,96,507,3148,1343,621,4393,4391,5259,4392
1870,748,2201,3169,3186,5256,4940,5297,5258,4941,4702
1871,2106,2107,2108,3112,2892,2897,2896,3779,4820,5298
1872,2213,3099,2187,3210,4609,4872,2682,5114,5095,5299
1873,2198,3154,480,3158,5087,5300,5301,5088,4789,5302
1874,1151,1176,1210,3207,1740,2028,2029,4867,4832,4809
1875,487,3163,979,3201,5261,5122,5272,5140,4898,5123
1876,2234,3145,3121,3208,4792,4791,4793,5197,5041,5262
1877,722,2194,307,3103,3954,2439,903,3889,3955,5255
1878,2207,3114,2118,3206,5233,4155,2597,4887,5007,5303
1879,1131,1097,983,3110,1563,1562,1564,4616,3448,4837
1880,2190,2147,2148,3153,3045,3040,3046,3878,3733,4122
1881,2034,2125,2165,3107,2567,2566,2565,4172,3770,4567
1882,722,307,741,3103,903,900,793,3889,5255,5221
1883,338,2252,2041,3180,2534,2536,2532,5304,3970,4755
1884,1062,1059,1061,3160,1888,1886,1889,3256,3454,4261
1885,2141,2223,2174,3203,3019,3023,3022,4815,5200,4193
1886,2043,2189,2194,3156,2625,2624,2444,4693,4109,3956
1887,2250,2165,2053,3200,2570,2681,2359,4576,4569,4575
1888,1017,3116,1014,3168,4968,4581,1708,5305,4290,4151
1889,735,3151,1145,3169,5306,4833,5307,5308,4736,4835
1890,1145,735,254,3151,5307,869,1461,4833,5306,5293
1891,476,494,155,3136,562,664,665,3487,3819,5202
1892,3134,3157,985,3213,5164,5234,5236,3730,5232,5235
1893,2248,161,2053,3210,2361,2357,2362,5170,5229,4602
1894,737,3141,987,3180,5286,4829,5309,5288,3430,4830
1895,2056,335,736,3186,2525,959,3921,3521,5257,3922
1896,1177,1081,1082,3149,1492,1974,1979,4486,5147,4405
1897,1020,1019,1018,3147,1724,1720,1725,4669,5003,4577
1898,2149,2143,2188,3197,3031,3018,3032,5021,3926,5135
1899,981,1210,1144,3120,1555,1554,1459,3929,4808,4907
1900,2171,2111,2168,3202,2921,2919,2922,4053,3989,3828
1901,179,2054,499,3163,2415,5291,713,5310,4765,5246
1902,1048,975,1173,3121,1518,1521,1520,4871,4933,5152
1903,1067,1066,1068,3108,1913,1917,1916,3627,4360,3266
1904,1019,1175,978,3147,1538,1537,1535,5003,5112,4552
1905,1085,1148,1079,3197,1973,1959,1971,4943,5136,3876
1906,2085,2207,2118,3146,2796,2597,2808,4264,5247,4156
1907,2251,180,2054,3152,2418,2414,2419,5266,5311,4764
1908,2119,3120,2083,3207,3797,5131,2797,3831,3832,4637
1909,1096,3174,3175,3176,4924,4138,4925,5108,5013,4712
1910,338,2041,737,3180,2532,5287,962,5304,4755,5288
1911,2160,3175,3174,3176,4927,4138,4926,5109,4712,5013
1912,1101,1131,983,3088,1567,1564,1566,4594,4104,4836
1913,2208,2172,2044,3088,2633,2634,2629,4099,4596,4822
1914,2131,2132,2133,3108,2972,2977,2976,4367,3647,3242
1915,1029,1181,1028,3095,1767,1766,1761,4184,3498,3222
1916,1100,1111,987,3141,1588,1587,1586,4389,3411,4829
1917,1016,1017,3168,3194,1709,5305,4798,5031,4984,5032
1918,429,57,427,3101,467,468,458,5048,5002,5192
1919,1128,994,1036,3119,1327,1623,1624,3992,4199,3631
1920,2209,503,164,3154,5312,683,2370,5078,5277,5313
1921,240,751,1121,3195,825,3384,1415,5314,3350,3338
1922,164,480,2198,3154,682,5301,2366,5313,5300,5087
1923,1141,1052,3165,3202,1514,3957,4403,3783,3959,3830
1924,2191,2206,2030,3177,2542,2541,2543,4516,4623,3676
1925,2269,2174,723,310,2452,5203,5151,2446,2451,906
1926,996,1106,1108,3144,1633,1637,1636,4254,4697,4942
1927,488,180,2251,3152,715,2418,5267,5265,5311,5266
1928,747,1144,254,3151,5027,1457,867,5129,5128,5293
1929,988,228,741,3103,1377,789,5248,4745,5315,5221
1930,722,228,1119,3103,791,1381,3891,3889,5315,3890
1931,1202,259,987,3180,1476,1472,1477,4051,5316,4830
1932,730,985,3134,3157,5290,5236,5097,5162,5234,5164
1933,2167,747,333,3151,5173,952,2517,4981,5129,5317
1934,499,2054,180,3152,5291,2414,714,5244,4764,5311
1935,3115,3163,2176,3201,3239,4708,4707,4897,4898,5274
1936,750,738,1154,260,889,3594,3985,885,887,1479
1937,2144,2143,2145,3149,3025,3029,3028,3373,3925,5165
1938,2170,2041,2070,3141,2613,2612,2614,3997,4754,3412
1939,983,724,232,3088,5249,803,1395,4836,5250,5193
1940,312,2044,724,3110,2454,5296,910,5213,4823,5251
1941,1032,1181,1029,3132,1532,1767,1771,3895,4507,4182
1942,2203,731,326,3209,4465,938,2496,4998,4997,5318
1943,503,480,164,3154,589,682,683,5277,5300,5313
1944,975,85,503,3154,1310,588,5276,4934,5319,5277
1945,2108,3112,2229,3199,5298,4785,2901,5211,5253,5084
1946,736,335,748,3186,959,956,877,3922,5257,5258
1947,3112,3121,2107,3154,3704,4821,4820,4786,4794,5042
1948,2207,2118,3146,3206,2597,4156,5247,4887,5303,5134
1949,168,482,2163,3193,690,3714,2378,5320,3716,3613
1950,2109,3111,3165,3211,5071,4491,5072,5090,4346,4852
1951,987,1111,1112,3180,1587,1591,1590,4830,3394,4247
1952,1174,1046,1110,3213,1836,1824,1578,5225,5069,4556
1953,1094,3178,1000,3205,5124,3614,1653,4969,3360,3615
1954,503,2209,3145,3154,5312,5077,5275,5277,5078,4796
1955,2158,2059,3178,3205,2714,3616,4763,4970,3617,3360
1956,1199,258,749,3141,1469,879,4004,4005,5321,3582
1957,1199,987,258,3141,1474,1473,1469,4005,4829,5321
1958,744,233,1190,3110,806,1398,3976,3918,5281,3977
1959,1034,1031,1143,3142,1780,1773,1781,4390,4974,4118
1960,1108,1109,980,3117,1547,1546,1545,4854,3308,4187
1961,1124,973,1125,3107,1506,1508,1507,3353,4158,4557
1962,99,1159,498,3201,1350,3899,626,5273,3901,3852
1963,13,381,383,3176,405,407,403,5218,5219,5322
1964,1138,977,1032,3133,1333,1530,1531,3319,4258,3652
1965,987,259,737,3180,1472,882,5309,4830,5316,5288
1966,2116,2268,2237,3157,2936,2645,2938,5119,4212,4065
1967,2269,2223,2043,3203,2628,2627,2447,4812,5200,4695
1968,1163,3158,3112,3199,4819,4790,4818,5121,5061,5253
1969,1052,1168,1141,3165,1852,1608,1514,3957,4413,4403
1970,1135,84,480,3158,1307,585,5323,5030,5282,5302
1971,1135,480,3154,3158,5323,5300,5029,5030,5302,4789
1972,2039,2118,2207,3114,2598,2597,2596,5187,4155,5233
1973,754,730,245,3134,844,840,842,4087,5097,5237
1974,501,161,479,3210,676,677,580,4601,5229,5171
1975,1174,1110,985,3213,1578,1576,1579,5225,4556,5235
1976,501,479,82,3210,580,579,575,4601,5171,5205
1977,2061,383,27,3176,5324,416,2284,5012,5322,5294
1978,2051,307,2194,3103,2437,2439,2441,4776,5255,3955
1979,2206,2153,2156,3143,3064,3068,3070,4624,4656,4999
1980,175,483,2039,3148,704,5204,2399,5325,5144,5177
1981,1161,3156,3191,3203,5116,4330,5117,5161,4667,4816
1982,722,741,228,3103,793,789,791,3889,5221,5315
1983,1049,3112,3111,3199,4599,4345,4598,5326,5253,5111
1984,1049,1048,1047,3112,1838,1833,1839,4599,4870,3703
1985,1077,1078,1076,3191,1956,1955,1951,4753,3342,3965
1986,3114,3146,2118,3206,3248,4156,4155,5007,5134,5303
1987,1001,3152,488,3181,5239,5265,5327,5240,5076,5268
1988,1136,86,481,3145,1313,591,5079,5127,5284,5176
1989,488,1001,101,3152,5327,1358,636,5265,5239,5283
1990,314,745,2045,3204,917,4961,2462,5328,5209,5230
1991,1047,1048,1045,3121,1833,1832,1830,3669,4871,4661
1992,2153,2154,2155,3196,3060,3067,3066,4710,4013,4466
1993,165,2036,481,3145,2373,5207,685,5329,5195,5176
1994,338,750,2252,3180,965,3968,2534,5304,3969,3970
1995,2116,2104,3123,3213,2884,5056,5118,5330,5181,5150
1996,2190,2191,2051,3104,2671,2670,2672,4106,4515,4777
1997,992,501,82,3210,4611,575,1299,4607,4601,5205
1998,2061,383,3176,3187,5324,5322,5012,5015,5331,5017
1999,735,2050,333,3151,5332,2519,955,5306,4903,5317
2000,1177,1082,1086,3097,1979,1983,1985,4249,4404,4035
2001,2150,2146,2239,3097,3043,3038,3044,4031,4523,4242
2002,2050,3151,735,3169,4903,5306,5332,4904,4736,5308
2003,745,235,984,3204,812,1404,4919,5209,5333,5208
2004,1126,3179,1201,3210,4688,4931,1616,5206,5172,5242
2005,2108,3111,3112,3199,5089,4345,5298,5211,5111,5253
2006,1161,1077,1104,3203,1961,1962,1964,5161,4844,4237
2007,1085,1081,1162,3192,1972,1490,1980,4437,5148,3701
2008,2188,3139,3124,3197,4779,3404,4778,5135,4161,4944
2009,2184,2268,3123,3130,2937,4520,5055,5334,4211,4519
2010,383,381,27,3176,407,420,416,5322,5219,5294
2011,1030,1027,1153,3159,1764,1756,1765,3944,4381,4800
2012,2167,2083,2119,3120,2799,2797,2800,4982,5131,3797
2013,2090,3142,3132,3189,4993,4186,4992,5157,4328,3422
2014,2116,3157,2270,3213,5119,5216,2886,5330,5232,4979
2015,2215,2162,2054,3152,2684,2686,2685,3250,4759,4764
2016,2089,2091,2242,3142,2822,2825,2824,3885,4162,3543
2017,2090,2181,2093,3132,2820,2830,2829,4992,3866,3429
2018,179,2247,2054,3163,2411,2416,2415,5310,5260,4765
2019,13,383,1003,3176,403,5335,1224,5218,5322,5019
2020,311,724,2044,3088,911,5296,2453,5174,5250,4822
2021,750,259,1202,3180,884,1476,4050,3969,5316,4051
2022,2197,2129,2231,3185,2970,2958,2571,3530,4173,4499
2023,2055,316,757,3182,2468,921,4766,4905,5336,5132
2024,728,320,2262,3202,926,2478,5337,5338,5340,5339
2025,1209,1139,1175,3148,1631,1539,1749,5005,5092,5113
2026,102,1001,488,3181,1359,5327,635,5341,5240,5268
2027,2162,3152,3138,3181,4759,3251,4758,5280,5076,5074
2028,2041,337,737,3141,2531,963,5287,4754,5342,5286
2029,2261,749,337,3141,3757,960,2529,3758,3582,5342
2030,2198,2209,164,3154,2371,2370,2366,5087,5078,5313
2031,737,258,987,3141,881,1473,5309,5286,5321,4829
2032,163,2198,480,3158,2367,5301,681,5343,5088,5302
2033,3111,1050,3165,3211,5110,5105,4491,4346,5106,4852
2034,2162,2251,3152,3181,2687,5266,4759,5280,5269,5076
2035,1183,1143,1030,3142,1642,1774,1775,3508,4118,3942
2036,2088,2087,2243,3095,2810,2815,2814,4357,3346,3450
2037,2185,2180,2048,3117,2651,2653,2652,3332,4985,4209
2038,2168,3195,2262,3202,4535,5344,2623,3828,4169,5339
2039,181,2251,2063,3181,2417,2422,2421,5289,5269,4386
2040,101,499,488,3152,632,637,636,5283,5244,5265
2041,992,1201,1150,3210,1615,1617,1614,4607,5242,4874
2042,2047,2203,2259,3144,2497,2647,2646,4275,4274,3795
2043,2041,2261,337,3141,2533,2529,2531,4754,3758,5342
2044,2214,2117,2036,3125,2579,2581,2580,5220,4312,5189
2045,2262,3195,728,3202,5344,5345,5337,5339,4169,5338
2046,1137,1208,1136,3125,2025,2024,1318,3937,5039,4950
2047,3132,3142,1031,3189,4186,4974,4973,3422,4328,5227
2048,2168,2120,2042,3195,2620,2619,2621,4535,4366,3284
2049,2220,2188,2032,3124,2555,2556,2335,3988,4778,3403
2050,2134,2136,2208,3170,2989,2992,2991,3962,3812,4100
2051,2199,507,175,3148,4445,705,2403,4446,4392,5325
2052,1071,1069,1131,3170,1930,1932,1931,3810,4003,4105
2053,2247,2176,3163,3201,2608,4708,5260,5141,5274,4898
2054,2050,2167,333,3151,2521,2517,2519,4903,4981,5317
2055,1160,971,1148,3124,1276,1496,1497,4001,3402,4928
2056,487,2247,179,3163,5139,2411,712,5261,5260,5310
2057,2216,2237,323,3157,2491,2487,2489,5163,4065,5346
2058,2181,2038,2222,3133,2594,2392,2593,3682,4195,3317
2059,27,2173,2061,3176,2286,2288,2284,5294,4717,5012
2060,2081,2202,2078,3128,2779,2769,2777,4657,4991,4316
2061,89,506,1128,3193,600,3990,1322,5347,3995,3993
2062,225,720,1118,3190,780,5081,1368,5348,5210,5188
2063,99,979,1159,3201,1352,1354,1350,5273,5123,3901
2064,1076,1148,1074,3139,1950,1949,1947,4159,4929,4563
2065,747,254,735,3151,867,869,871,5129,5293,5306
2066,724,311,743,3088,911,908,805,5250,5174,4072
2067,1121,974,240,3195,1420,1419,1415,3338,4994,5314
2068,1051,1050,1052,3165,1846,1851,1850,4619,5105,3957
2069,1049,3111,1211,3199,4598,5175,1847,5326,5111,5068
2070,743,232,724,3088,801,803,805,4072,5193,5250
2071,100,979,487,3163,1353,5272,629,5292,5122,5261
2072,483,507,96,3148,622,621,617,5144,4392,5259
2073,499,180,488,3152,714,715,637,5244,5311,5265
2074,1023,1159,1105,3201,1746,1541,1723,4518,3901,5168
2075,85,480,503,3154,584,589,588,5319,5300,5277
2076,744,724,233,3110,808,804,806,3918,5251,5281
2077,501,2053,161,3210,4573,2357,676,4601,4602,5229
2078,992,1125,1188,3200,1612,1511,1300,4604,4560,4613
2079,2105,2214,2234,3208,2882,2585,2895,5120,4761,5197
2080,2030,304,740,3190,2430,897,3684,3679,5349,3685
2081,2129,2128,2126,3185,2956,2955,2957,4173,4660,5054
2082,1080,1081,1079,3149,1970,1969,1965,3420,5147,3875
2083,312,724,744,3110,910,808,913,5213,5251,3918
2084,244,753,1122,3157,837,4301,1427,5350,4063,4302
2085,1048,3121,3112,3154,4871,3704,4870,5103,4794,4786
2086,503,481,86,3145,592,591,587,5275,5176,5284
2087,1033,1032,1031,3132,1777,1772,1778,3367,3895,4973
2088,487,179,499,3163,712,713,634,5261,5310,5246
2089,3124,3139,1148,3197,3404,4929,4928,4944,4161,5136
2090,2077,3168,3116,3194,5100,4290,4780,4781,5032,4493
2091,1136,1208,1173,3145,2024,1828,1522,5127,5037,5153
2092,3116,3168,1017,3194,4290,5305,4968,4493,5032,4984
2093,2209,165,503,3145,2369,684,5312,5077,5329,5275
2094,28,381,384,3205,419,410,422,5263,5241,3778
2095,225,969,740,3190,1372,3717,782,5348,3695,3685
2096,976,482,89,3193,3745,596,1320,3635,3716,5347
2097,502,480,84,3158,586,585,581,4888,5302,5282
2098,2076,3168,2077,3194,4860,5100,2761,5126,5032,4781
2099,985,1110,1107,3134,1576,1575,1574,5236,5212,3803
2100,735,333,747,3151,955,952,871,5306,5317,5129
2101,1014,1017,1105,3116,1708,1710,1701,4581,4968,4918
2102,1130,101,1001,3152,1356,1358,1360,4570,5283,5239
2103,1135,480,85,3154,5323,584,1308,5029,5300,5319
2104,26,2265,386,3187,2272,5351,394,5352,5354,5353
2105,1151,1196,1026,3207,1759,1758,1745,4867,3865,4664
2106,3123,3130,1114,3211,4519,4884,4883,4166,4853,5070
2107,499,100,487,3163,633,629,634,5246,5292,5261
2108,737,750,338,3180,886,965,962,5288,3969,5304
2109,755,247,1184,3209,848,1440,4440,4442,5279,4441
2110,2053,2213,2187,3210,2679,2682,2683,4602,5114,5299
2111,235,725,1099,3204,810,4408,1400,5333,4299,3687
2112,988,1119,228,3103,1382,1381,1377,4745,3890,5315
2113,1204,261,1154,3212,1223,1478,1481,5355,5356,3425
2114,1107,1042,1106,3198,1819,1810,1634,3802,3858,4698
2115,1198,1149,988,3104,1598,1596,1595,4634,4007,4746
2116,323,730,2216,3157,935,5096,2489,5346,5162,5163
2117,2223,3191,3156,3203,5046,4330,5045,5200,4816,4667
2118,1142,1143,997,3173,1641,1640,1450,3864,4119,3408
2119,1163,3112,1049,3199,4818,4599,1844,5121,5253,5326
2120,1163,1049,1211,3199,1844,1847,1849,5121,5326,5068
2121,1083,1120,1178,3155,1978,1989,1988,3651,4225,3483
2122,1021,1018,1146,3128,1727,1717,1728,4651,4303,5053
2123,1096,1179,1091,3175,1645,2013,2017,4925,4136,4484
2124,26,386,383,3187,394,418,417,5352,5353,5331
2125,2241,2160,2155,3175,2705,3077,3071,4141,4927,4420
2126,2063,2162,2066,3181,2728,2727,2729,4386,5280,5226
2127,2202,2076,2078,3129,2768,2766,2769,4945,4859,4511
2128,14,384,381,3205,408,410,406,5295,3778,5241
2129,2216,2047,2270,3134,2494,2649,2648,5064,4310,4978
2130,1151,1210,1196,3207,2029,1556,1759,4867,4809,3865
2131,974,728,240,3195,5357,827,1419,4994,5345,5314
2132,1006,3137,3138,3181,4678,4399,4679,5270,3291,5074
2133,737,259,750,3180,882,884,886,5288,5316,3969
2134,737,337,749,3141,963,960,883,5286,5342,3582
2135,1193,1001,1006,3181,1660,1658,1661,5075,5240,5270
2136,175,2039,2199,3148,2399,2404,2403,5325,5177,4446
2137,2097,2179,2180,3171,2856,2859,2858,4580,4540,4912
2138,975,1135,85,3154,1312,1308,1310,4934,5029,5319
2139,507,483,175,3148,622,704,705,4392,5144,5325
2140,244,985,730,3157,1431,5290,839,5350,5234,5162
2141,749,258,737,3141,879,881,883,3582,5321,5286
2142,1153,1196,1123,3109,1760,1553,2023,4799,3842,3787
2143,1060,1061,1059,3135,1887,1886,1881,4154,4260,3952
2144,2035,163,502,3158,2363,680,4838,5083,5343,4888
2145,2037,506,168,3193,4010,691,2382,4011,3995,5320
2146,2241,2057,2160,3174,2704,2703,2705,4140,3933,4926
2147,2076,2075,2073,3168,2759,2755,2760,4860,3840,3823
2148,1179,1096,998,3174,1645,1643,1646,4134,4924,3871
2149,2116,2103,2104,3213,2883,2878,2884,5330,4566,5181
2150,144,509,2265,3187,518,5358,2273,5359,5360,5354
2151,1146,1018,1016,3129,1717,1716,1718,4964,4504,4797
2152,990,1114,1122,3130,1604,1605,1429,4059,4884,4300
2153,100,1130,979,3163,1355,1357,1353,5292,4571,5122
2154,739,1004,3167,3188,5178,5050,5160,5238,5101,3557
2155,163,480,502,3158,681,586,680,5343,5302,4888
2156,3099,3179,2187,3210,4671,4873,4872,5095,5172,5299
2157,2212,2084,2086,3159,2803,2801,2804,4514,4278,4267
2158,2266,30,385,3188,2274,400,5361,5362,5364,5363
2159,2266,758,302,3188,5365,767,2276,5362,5367,5366
2160,2187,3179,2248,3210,4873,4840,2577,5299,5172,5170
2161,1210,1176,1144,3151,2028,2027,1554,4806,4947,5128
2162,3115,3116,1105,3201,4288,4918,4917,4897,4429,5168
2163,165,481,503,3145,685,592,684,5329,5176,5275
2164,2237,753,323,3157,4060,932,2487,4065,4063,5346
2165,334,748,2201,3169,957,5256,2522,5368,5297,4940
2166,314,725,745,3204,914,814,917,5328,4299,5209
2167,168,506,482,3193,691,601,690,5320,3995,3716
2168,2173,28,2059,3205,2287,2289,2291,4719,5263,3617
2169,14,1000,384,3205,1231,3873,408,5295,3615,3778
2170,731,247,755,3209,846,848,850,4997,5279,4442
2171,2184,3130,3123,3211,5334,4519,5055,5057,4853,4166
2172,2175,2176,2040,3201,2604,2603,2605,5011,5274,4179
2173,165,2209,2036,3145,2369,2374,2373,5329,5077,5195
2174,1026,1196,1153,3159,1758,1760,1757,4663,3843,4800
2175,2119,2083,2084,3207,2797,2792,2798,3831,4637,4279
2176,2050,735,334,3169,5332,954,2520,4904,5308,5368
2177,225,1118,969,3190,1368,1373,1372,5348,5188,3695
2178,2157,2210,2033,3136,2559,2558,2560,4377,4536,3501
2179,1115,1093,972,3136,1500,1499,1501,4450,4379,3486
2180,1128,976,89,3193,1324,1320,1322,3993,3635,5347
2181,738,261,759,3212,888,770,890,3595,5356,5369
2182,1002,3101,427,3212,4909,5192,5201,5167,3561,5271
2183,1154,261,738,3212,1478,888,3594,3425,5356,3595
2184,387,1205,383,3187,5370,5371,404,5372,5373,5331
2185,168,2163,2037,3193,2378,2383,2382,5320,3613,4011
2186,235,1099,984,3204,1400,1405,1404,5333,3687,5208
2187,244,1122,985,3157,1427,1432,1431,5350,4302,5234
2188,2228,3130,2184,3211,3978,5334,2913,5252,4853,5057
2189,1118,1095,1180,3167,1671,2020,1483,5052,3914,4468
2190,2147,2238,2189,3155,3048,3047,3037,3734,3537,4107
2191,2224,2031,2145,3150,2329,2549,2548,3861,4069,5182
2192,1095,1000,1094,3178,1654,1653,1655,3915,3614,5124
2193,736,256,1103,3186,875,1467,4319,3922,5374,3626
2194,2159,2158,2059,3178,2712,2714,2713,3917,4763,3616
2195,1145,255,735,3169,1460,870,5307,4835,5375,5308
2196,1204,759,261,3212,5376,770,1223,5355,5369,5356
2197,2262,320,2171,3202,2478,2480,2482,5339,5340,4053
2198,725,314,2169,3204,914,2460,4298,4299,5328,3649
2199,2239,2195,2150,3162,2552,3057,3044,4245,3910,4032
2200,1132,1177,1086,3162,1493,1985,1998,3906,4250,4036
2201,728,3195,974,3202,5345,4994,5357,5338,4169,4995
2202,2203,326,2245,3209,2496,2498,2500,4998,5318,4549
2203,58,427,2060,3212,469,5191,2305,5377,5271,5224
2204,28,384,2059,3205,422,3898,2289,5263,3778,3617
2205,314,2045,2169,3204,2462,2464,2460,5328,5230,3649
2206,489,3174,1156,3187,5184,5066,5199,5278,5016,5158
2207,2193,2240,2159,3167,2545,3080,2724,5137,4472,3916
2208,748,3169,986,3186,5297,5043,5378,5258,4702,5044
2209,1076,1078,1079,3197,1955,1958,1957,3742,3344,3876
2210,2055,2200,316,3182,2470,2466,2468,4905,4954,5336
2211,181,500,488,3181,717,640,716,5289,3681,5268
2212,1001,102,1157,3181,1359,1361,1363,5240,5341,4331
2213,430,427,58,3212,470,469,445,5379,5271,5377
2214,745,725,235,3204,814,810,812,5209,4299,5333
2215,89,482,506,3193,596,601,600,5347,3716,3995
2216,2091,2204,2205,3173,2834,2509,2833,4163,3837,3409
2217,2035,2198,163,3158,2368,2367,2363,5083,5088,5343
2218,387,1205,12,383,5370,1212,391,404,5371,402
2219,511,103,500,1203,521,638,641,3469,1220,3790
2220,432,428,40,1203,449,448,436,3470,3590,1219
2221,2140,2143,2142,3197,3017,3016,3015,3748,3926,3323
2222,2201,2050,334,3169,2524,2520,2522,4940,4904,5368
2223,2216,2270,2116,3157,2648,2886,2939,5163,5216,5119
2224,1000,14,1102,3205,1231,1227,1232,3615,5295,4714
2225,742,1207,230,723,4770,1387,795,799,5149,797
2226,319,2042,751,3195,2475,3348,924,5380,3284,3350
2227,2108,2229,2186,3199,2901,2576,2908,5211,5084,4673
2228,1141,752,241,3202,3782,830,1422,3783,3784,5381
2229,244,730,753,3157,839,841,837,5350,5162,4063
2230,2063,500,181,3181,4741,717,2421,4386,3681,5289
2231,728,751,240,3195,829,825,827,5345,3350,5314
2232,2085,2084,2082,3083,2794,2793,2795,4263,4749,4825
2233,58,2060,2264,3212,2305,2308,2281,5377,5224,5382
2234,500,102,488,3181,639,635,640,3681,5341,5268
2235,1045,3121,1173,3208,4661,5152,1826,5285,5262,5264
2236,26,2061,2265,3187,2283,2285,2272,5352,5015,5354
2237,1062,1064,1169,3185,1899,1902,1901,3472,4048,4295
2238,1081,3149,3150,3192,5147,4483,5179,5148,4353,3846
2239,2157,2135,2210,3166,2996,2984,2559,4475,4201,4371
2240,1170,237,726,3182,1406,816,4996,5059,5383,5143
2241,1204,1002,427,3212,1249,5201,5384,5355,5167,5271
2242,225,740,720,3190,782,784,780,5348,3685,5210
2243,2058,2065,2064,3085,2708,2707,2304,4980,3653,4975
2244,1070,1073,1093,3166,1933,1936,1935,3999,3935,4534
2245,2135,2134,2132,3084,2982,2981,2983,4200,3961,3645
2246,1070,1067,1069,3084,1922,1920,1923,3998,3618,4002
2247,2112,2110,2113,3091,2915,2917,2916,4240,4508,4480
2248,757,237,1158,3182,818,1410,4801,5132,5383,4783
2249,2266,302,2062,3188,2276,2424,2426,5362,5366,5099
2250,970,1162,1081,3150,1270,1490,1489,4082,3844,5179
2251,433,1204,427,3212,5385,5384,459,5386,5355,5271
2252,720,304,2193,3190,894,2428,5194,5210,5349,5254
2253,2092,2093,2094,3189,2828,2836,2835,3772,3418,3435
2254,1081,1085,1079,3192,1972,1971,1969,5148,4437,4407
2255,735,748,334,3169,874,957,954,5308,5297,5368
2256,982,1207,230,742,1388,1387,1383,4144,4770,795
2257,2269,723,742,309,5151,799,4811,2445,907,904
2258,1022,1026,1025,3083,1744,1743,1742,4937,4956,4406
2259,1050,1047,1114,3211,1841,1834,1842,5106,3672,5070
2260,728,752,320,3202,832,929,926,5338,3784,5340
2261,1043,1041,1042,3087,1812,1808,1813,4631,4438,3951
2262,3121,3145,1173,3208,4791,5153,5152,5262,5041,5264
2263,1035,1033,1034,3189,1784,1779,1785,3434,3388,3814
2264,984,1172,1116,3183,1569,1573,1571,4923,4587,3518
2265,2193,304,2030,3190,2428,2430,2432,5254,5349,3679
2266,2071,2069,2072,3092,2747,2749,2748,4218,4337,4234
2267,2145,3150,3149,3192,5182,4483,5165,5166,3846,4353
2268,2061,26,383,3187,2283,417,5324,5015,5352,5331
2269,2121,2122,2123,3094,2932,2942,2941,4452,4338,3304
2270,1003,3176,383,3187,5019,5322,5335,5020,5017,5331
2271,978,1167,1019,3172,1348,1536,1535,4394,4214,4731
2272,1010,1008,1009,3090,1681,1677,1682,4314,4347,4448
2273,2218,144,2265,3187,2310,2273,2311,5156,5359,5354
2274,2171,2168,2262,3202,2922,2623,2482,4053,3828,5339
2275,2195,2052,2260,3162,2323,2676,2678,3910,3288,3444
2276,735,255,748,3169,870,872,874,5308,5375,5297
2277,991,1132,1197,3162,1264,1611,1610,3271,3906,3441
2278,1195,995,1209,3114,1629,1630,1632,3982,4583,5006
2279,1117,1197,1090,3102,1609,2003,2014,3643,3438,3736
2280,319,728,2262,3195,927,5337,2477,5380,5345,5344
2281,755,326,731,3209,941,938,850,4442,5318,4997
2282,2260,2192,2154,3102,2677,3073,3062,3442,3606,3738
2283,3123,3157,2116,3213,4521,5119,5118,5150,5232,5330
2284,748,255,986,3169,872,1464,5378,5297,5375,5043
2285,753,730,323,3157,841,935,932,4063,5162,5346
2286,2266,2217,30,3188,2295,2293,2274,5362,3356,5364
2287,489,1205,512,3187,5387,5388,529,5278,5373,5389
2288,1208,1137,1194,3125,2025,1529,1829,5039,3937,4129
2289,739,761,1206,3188,778,5390,5391,5238,5393,5392
2290,382,1206,388,3188,5394,5395,414,3562,5392,5396
2291,2269,742,2043,309,4811,4694,2447,2445,904,2443
2292,2101,2100,2102,3087,2863,2870,2869,3761,4276,4727
2293,2211,2199,2079,3172,2407,2783,2782,3849,4447,4742
2294,981,1196,1210,3120,1552,1556,1555,3929,3841,4808
2295,428,1005,40,1203,4230,1237,448,3590,1239,1219
2296,1084,1149,1088,3153,1986,1994,1993,4126,3809,4726
2297,316,2200,726,3182,2466,4962,918,5336,4954,5143
2298,2228,2109,2111,3165,2911,2909,2912,3980,5072,3881
2299,1127,1126,993,3179,1618,1306,1619,4720,4688,4686
2300,728,974,241,3202,5357,1418,828,5338,4995,5381
2301,2182,2232,2045,3183,2640,2637,2639,3496,4551,4958
2302,2067,2069,2068,3090,2739,2738,2735,4291,4336,4255
2303,500,1157,102,3181,4628,1361,639,3681,4331,5341
2304,512,65,1205,489,515,1214,5388,529,528,5387
2305,16,1206,388,382,1216,5395,395,412,5394,414
2306,761,1206,223,739,5390,1217,764,778,5391,776
2307,433,44,427,1204,441,456,459,5385,1221,5384
2308,1133,1134,1064,3184,1291,1911,1910,3726,3538,4047
2309,2196,2129,2197,3184,2971,2970,2350,3774,4148,3554
2310,2152,2151,2153,3086,3052,3059,3058,4733,3548,4655
2311,752,2171,320,3202,4311,2480,929,3784,4053,5340
2312,2162,2063,2251,3181,2728,2422,2687,5280,4386,5269
2313,748,986,256,3186,5378,1463,873,5258,5044,5374
2314,748,256,736,3186,873,875,877,5258,5374,3922
2315,760,2264,340,3212,5397,2282,773,5398,5382,5399
2316,58,2264,430,3212,2281,5400,445,5377,5382,5379
2317,2225,2201,2056,3186,2701,2527,2699,4044,4941,3521
2318,740,304,720,3190,897,894,784,3685,5349,5210
2319,316,726,757,3182,918,820,921,5336,5143,5132
2320,1195,1025,1028,3146,1748,1753,1755,3983,4349,3224
2321,2064,2177,2060,3101,2718,2717,2307,4976,4487,5001
2322,992,1126,1201,3210,1303,1616,1615,4607,5206,5242
2323,2098,2097,2096,3093,2851,2847,2852,3971,4579,4421
2324,1003,383,1205,3187,5335,5371,1226,5020,5331,5373
2325,1089,1087,1088,3086,1999,1992,2000,4638,3552,4725
2326,319,2262,2042,3195,2477,2479,2475,5380,5344,3284
2327,1089,1091,1090,3196,2008,2007,2002,4646,4485,4018
2328,2219,2066,2058,3137,2711,2710,2301,4033,4435,4901
2329,1170,1158,237,3182,1411,1410,1406,5059,4783,5383
2330,1039,1037,1038,3093,1799,1794,1800,4113,4502,4463
2331,1016,1018,1017,3194,1716,1715,1709,5031,4306,4984
2332,44,427,1204,1002,456,5384,1221,1247,5201,1249
2333,2153,2155,2156,3196,3066,3069,3068,4710,4466,4532
2334,1014,1015,1016,3168,1702,1707,1706,4151,3805,4798
2335,986,255,1145,3169,1464,1460,1465,5043,5375,4835
2336,757,726,237,3182,820,816,818,5132,5143,5383
2337,319,751,728,3195,924,829,927,5380,3350,5345
2338,2247,2040,2176,3201,2413,2603,2608,5141,4179,5274
2339,103,500,1203,1157,638,3790,1220,1362,4628,1364
2340,1078,1077,1161,3191,1956,1961,1960,3342,4753,5117
2341,2187,2186,2035,3179,2572,2574,2573,4873,4670,4841
2342,2142,2141,2140,3191,3014,3011,3015,3322,4814,3966
2343,2152,2190,2148,3153,3053,3046,3051,4734,3878,4122
2344,2139,2141,2172,3089,3010,3013,3012,4382,4813,4597
2345,2053,2187,2248,3210,2683,2577,2362,4602,5299,5170
2346,1101,1077,1075,3089,1953,1952,1954,4595,4752,4384
2347,755,2245,326,3209,4548,2498,941,4442,4549,5318
2348,1013,1012,1010,3092,1692,1691,1693,4525,4443,4315
2349,1075,1074,1071,3096,1939,1938,1940,4385,4562,3638
2350,2139,2136,2138,3096,2999,2997,3000,4383,3660,4478
2351,1113,1152,1002,3101,1664,1248,1663,4459,4911,4909
2352,2034,2165,2250,3200,2565,2570,2356,4751,4569,4576
2353,101,100,499,1130,140,633,632,1356,1355,5245
2354,1024,1209,1175,3206,1750,1749,1735,4972,5008,5125
2355,974,1141,241,3202,1423,1422,1418,4995,3783,5381
2356,1017,1018,1019,3194,1715,1720,1719,4984,4306,4732
2357,1107,1106,996,3144,1634,1633,1635,4111,4697,4254
2358,974,1121,1187,3195,1420,1517,1516,4994,3338,4167
2359,1057,1056,1191,3127,1872,1877,1876,4456,4410,3569
2360,1022,1020,1021,3106,1731,1726,1732,4935,4668,4650
2361,383,1205,12,1003,5371,1212,402,5335,1226,1225
2362,1086,1082,1084,3097,1983,1981,1984,4035,4404,4125
2363,2259,2270,2047,3134,2650,2649,2646,3729,4978,4310
2364,739,1206,1004,3188,5391,1367,5178,5238,5392,5101
2365,728,241,752,3202,828,830,832,5338,5381,3784
2366,2149,2224,2145,3192,3039,2548,3030,4528,3720,5166
2367,1060,1191,989,3164,1602,1601,1599,4387,3570,3589
2368,146,147,490,2192,186,648,647,2316,2315,3793
2369,2146,2150,2148,3097,3043,3042,3041,4523,4031,4120
2370,2161,2134,2208,3170,2986,2991,2630,3415,3962,4100
2371,2184,2228,2268,3130,2913,2643,2937,5334,3978,4211
2372,1204,1154,1002,3212,1481,1666,1249,5355,3425,5167
2373,1045,1173,1044,3208,1826,1825,1820,5285,5264,4706
2374,761,758,388,3188,774,5401,5402,5393,5367,5396
2375,1108,1038,1109,3171,1805,1796,1547,4863,4464,3310
2376,1029,1028,1027,3095,1761,1754,1762,4184,3222,4380
2377,2198,2107,2209,3154,2904,2903,2371,5087,5042,5078
2378,240,239,1121,751,279,1416,1415,825,824,3384
2379,489,1156,1205,3187,5199,1252,5387,5278,5158,5373
2380,1102,14,13,381,1227,19,1228,5217,406,405
2381,2082,2081,2080,3106,2784,2778,2785,4885,4658,4416
2382,993,1135,1163,3158,1309,1622,1621,4889,5030,4819
2383,2055,2124,2183,3164,2692,2691,2690,4769,3567,4228
2384,2202,2050,2201,3169,2667,2524,2668,4946,4904,4940
2385,1097,1131,1069,3170,1563,1932,1925,3449,4105,4003
2386,387,509,512,3187,5403,525,5404,5372,5360,5389
2387,2108,2110,2109,3111,2906,2905,2899,5089,4509,5071
2388,1127,1163,1211,3199,1620,1849,1870,4722,5121,5068
2389,2268,2116,2184,3123,2936,2891,2937,4520,5118,5055
2390,1125,973,1188,3200,1508,1297,1511,4560,4757,4613
2391,382,1155,1206,3188,3568,1236,5394,3562,3363,5392
2392,2246,2188,2138,3139,2557,3009,3002,4323,4779,4479
2393,1206,1004,223,739,1367,1366,1217,5391,5178,776
2394,2228,2184,2109,3211,2913,2900,2911,5252,5057,5090
2395,758,385,388,3188,5405,415,5401,5367,5363,5396
2396,1098,74,75,475,1277,114,1278,3663,555,554
2397,1079,1148,1076,3197,1959,1950,1957,3876,5136,3742
2398,2140,2188,2143,3197,3008,3018,3017,3748,5135,3926
2399,996,1108,1184,3209,1636,1548,1441,5036,4855,4441
2400,1141,974,1052,3202,1423,1513,1514,3783,4995,3959
2401,82,81,501,992,121,576,575,1299,1298,4611
2402,2253,2161,2044,3110,2632,2631,2458,4030,3414,4823
2403,1041,1194,1040,3131,1811,1527,1806,4374,4130,3576
2404,1174,1114,1046,3123,1837,1835,1836,4881,4883,4538
2405,307,741,2051,306,900,5222,2437,346,901,2436
2406,386,509,387,3187,5406,5403,401,5353,5360,5372
2407,332,333,2167,747,372,2517,2516,953,952,5173
2408,1103,256,986,3186,1467,1463,1468,3626,5374,5044
2409,1005,999,1006,3137,1242,1649,1648,4027,5034,4678
2410,1096,1102,1003,3176,1668,1229,1667,5108,4711,5019
2411,2173,2160,2061,3176,2721,2722,2288,4717,5109,5012
2412,2087,2088,2086,3095,2810,2809,2805,3346,4357,4293
2413,304,2030,740,305,2430,3684,897,344,2431,896
2414,173,172,2164,497,212,2394,2393,700,699,3464
2415,2055,2230,2200,3182,2693,2695,2470,4905,4220,4954
2416,2049,330,331,746,2510,370,2511,3749,949,948
2417,168,167,2163,482,207,2379,2378,690,689,3714
2418,1156,1205,65,489,1252,1214,1250,5199,5387,528
2419,1211,1049,1051,3111,1847,1845,1848,5175,4598,4618
2420,1094,1092,1095,3178,2016,2019,1655,5124,5024,3915
2421,1101,983,1200,3088,1566,1396,1568,4594,4836,4132
2422,2044,2172,2263,3088,2634,2635,2455,4822,4596,4073
2423,2156,2158,2159,3178,3074,2712,3078,4531,4763,3917
2424,2071,2075,2170,3140,2754,2696,2751,4219,3688,3996
2425,228,227,988,741,267,1378,1377,789,788,5248
2426,2212,2242,2049,3109,2664,2663,2658,4513,3544,3750
2427,234,1099,235,725,1401,1400,274,809,4408,810
2428,2237,2216,2116,3157,2491,2939,2938,4065,5163,5119
2429,2045,2232,2169,3204,2637,2636,2464,5230,4848,3649
2430,1054,1051,1053,3091,1856,1854,1857,4723,4617,4296
2431,1206,16,1155,382,1216,1233,1236,5394,412,3568
2432,166,165,2036,481,205,2373,2372,686,685,5207
2433,175,174,2039,483,214,2400,2399,704,703,5204
2434,2203,325,326,731,2495,365,2496,4465,939,938
2435,1060,989,1158,3164,1599,1414,1600,4387,3589,4782
2436,969,1118,1180,3190,1373,1483,1482,3695,5188,4675
2437,2173,27,28,381,2286,33,2287,5243,420,419
2438,972,76,77,476,1283,116,1284,3488,561,560
2439,1122,1174,985,3157,1580,1579,1432,4302,4882,5234
2440,1054,1150,1201,3099,1865,1617,1869,4724,4649,4930
2441,2105,2234,2107,3121,2895,2894,2893,4680,4793,4821
2442,1133,1064,1171,3184,1910,1908,1505,3726,4047,3602
2443,2108,2107,2229,3112,2897,2902,2901,5298,4820,4785
2444,2196,2233,2129,3184,2562,2969,2971,3774,3604,4148
2445,988,1140,1198,3104,1379,1484,1595,4746,3756,4634
2446,2091,2089,2090,3142,2822,2818,2823,4162,3885,4993
2447,2144,2145,2146,3149,3028,3034,3033,3373,5165,4524
2448,2165,2122,2213,3098,2947,2934,2680,4568,4339,4608
2449,1146,1176,1021,3128,1739,1738,1728,5053,4831,4651
2450,1096,1091,1094,3175,2017,2015,2018,4925,4484,4891
2451,2155,2160,2158,3175,3077,3076,3075,4420,4927,4762
2452,1058,1125,1150,3098,1885,1613,1875,4326,4558,4648
2453,2168,2112,2120,3126,2920,2925,2620,3827,4241,4461
2454,1112,1009,1113,3100,1688,1679,1689,4246,4449,4457
2455,2076,2077,2078,3194,2761,2767,2766,5126,4781,4318
2456,2147,2189,2144,3155,3037,3027,3035,3734,4107,3372
2457,327,328,2048,732,367,2502,2501,943,942,4208
2458,226,225,969,740,265,1372,1371,783,782,3717
2459,2045,2200,2182,3183,2467,2638,2639,4958,4955,3496
2460,177,178,498,2040,217,710,709,2409,2408,4178
2461,1181,1032,977,3133,1532,1530,1533,3499,3652,4258
2462,1198,1147,1088,3177,1488,2005,2006,4635,4627,5035
2463,2088,2181,2090,3132,2821,2820,2819,4358,3866,4992
2464,2235,2202,2081,3128,2669,2779,2790,4590,4991,4657
2465,973,79,80,508,1292,119,1293,4157,570,569
2466,2235,2167,2050,3151,2665,2521,2666,4588,4981,4903
2467,2102,2105,2104,3122,2881,2880,2879,4728,4681,5180
2468,1016,1164,1146,3129,1711,1585,1718,4797,4127,4964
2469,2076,2202,2225,3129,2768,2770,2765,4859,4945,4043
2470,1148,1085,1160,3124,1973,1995,1497,4928,4436,4001
2471,2188,2220,2149,3124,2555,3054,3032,4778,3988,4527
2472,1172,984,1099,3204,1569,1405,1570,4804,5208,3687
2473,2041,2252,2074,3180,2536,2615,2611,4755,3970,4333
2474,1103,736,257,256,4319,876,1466,1467,875,296
2475,1116,1170,984,3183,1572,1408,1571,3518,4922,4923
2476,2166,2246,2137,3113,2553,3003,3004,3706,4322,4015
2477,1098,1073,1185,3113,1946,1943,1495,3664,3946,4431
2478,2176,2175,2072,3115,2604,2757,2758,4707,4476,4235
2479,1190,983,1097,3110,1399,1562,1565,3977,4837,3448
2480,2231,2125,2034,3107,2568,2567,2569,4498,3770,4172
2481,1124,1169,973,3107,1510,1509,1506,3353,4294,4158
2482,2118,2039,2257,3114,2598,2401,2599,4155,5187,4699
2483,1036,994,1165,3119,1623,1626,1625,3631,4199,3334
2484,2076,2073,2077,3168,2760,2762,2761,4860,3823,5100
2485,982,1120,1161,3156,1557,1560,1559,4042,4227,5116
2486,1031,1032,1029,3132,1772,1771,1769,4973,3895,4182
2487,67,68,1117,490,107,1257,1256,534,533,3642
2488,2038,2181,2243,3133,2594,2595,2592,4195,3682,3451
2489,317,316,757,2055,356,921,920,2469,2468,4766
2490,508,158,159,2034,671,198,672,4171,2352,2351
2491,2193,2159,2062,3167,2724,2725,2429,5137,3916,5098
2492,1004,1095,1118,3167,1670,1671,1370,5050,3914,5052
2493,1046,1045,1043,3122,1822,1821,1823,4537,4662,4629
2494,1187,1056,1053,3126,1864,1863,1859,4054,4409,4297
2495,1183,1153,1123,3109,1776,2023,1638,3510,4799,3787
2496,1145,1146,986,3169,1584,1583,1465,4835,4965,5043
2497,2051,2191,2258,3104,2670,2544,2438,4777,4515,4578
2498,2213,2113,2187,3099,2928,2929,2682,4609,4481,4872
2499,1179,1117,1090,3102,1647,2014,2012,4135,3643,3736
2500,2154,2192,2241,3102,3073,2706,3072,3738,3606,4139
2501,1096,1156,998,3174,1644,1255,1643,4924,5066,3871
2502,1057,1059,1058,3094,1880,1879,1874,4455,3453,4325
2503,1175,1019,1020,3147,1538,1724,1729,5112,5003,4669
2504,2160,2057,2218,3174,2703,2314,2702,4926,3933,5145
2505,2104,2184,2116,3123,2889,2891,2884,5056,5055,5118
2506,2078,2077,2079,3194,2767,2772,2771,4318,4781,4743
2507,1045,1048,1173,3121,1832,1520,1826,4661,4871,5152
2508,1168,1052,1050,3165,1852,1851,1853,4413,3957,5105
2509,2051,2194,2238,3103,2441,2675,2674,4776,3955,3536
2510,2074,2177,2068,3100,2745,2736,2744,4332,4434,4256
2511,1080,1082,1081,3149,1975,1974,1970,3420,4405,5147
2512,1006,1001,1157,3181,1658,1363,1659,5270,5240,4331
2513,2048,2227,2185,3117,2656,2655,2652,4209,4056,3332
2514,2095,2115,2221,3119,2841,2850,2586,3724,3354,4204
2515,493,152,153,2032,659,192,660,3513,2334,2333
2516,980,1109,1166,3117,1546,1550,1549,4187,3308,4196
2517,1186,979,1130,3163,1543,1357,1544,3897,5122,4571
2518,386,2265,509,3187,5351,5358,5406,5353,5354,5360
2519,2103,2116,2270,3213,2883,2886,2885,4566,5330,4979
2520,2077,2175,2226,3116,2763,2606,2774,4780,4477,4427
2521,2119,2256,2167,3120,2661,2518,2800,3797,4744,4982
2522,2100,2099,2117,3131,2861,2866,2865,4277,3598,4313
2523,990,1168,1114,3130,1607,1606,1604,4059,4412,4884
2524,758,2266,385,3188,5365,5361,5405,5367,5362,5363
2525,2236,2199,2039,3148,2600,2404,2601,4906,4446,5177
2526,1105,1186,1012,3115,1542,1696,1700,4917,3896,4444
2527,1015,1013,1100,3140,1703,1705,1704,3712,4526,4388
2528,1173,1208,1044,3208,1828,1827,1825,5264,4774,4706
2529,1182,1036,1037,3118,1797,1792,1798,3923,3630,4503
2530,1017,1023,1105,3116,1721,1723,1710,4968,4547,4918
2531,760,340,738,3212,773,966,968,5398,5399,3595
2532,2179,2259,2203,3144,2877,2647,3082,4585,3795,4274
2533,2255,2036,2117,3125,2377,2581,2582,4709,5189,4312
2534,179,180,499,2054,219,714,713,2415,2414,5291
2535,1199,1100,987,3141,1589,1586,1474,4005,4389,4829
2536,387,512,1205,3187,5404,5388,5370,5372,5389,5373
2537,1126,1127,1201,3179,1618,1868,1616,4688,4720,4931
2538,1026,1153,1027,3159,1757,1756,1752,4663,4800,4381
2539,2254,2157,2033,3136,2561,2560,2344,3722,4377,3501
2540,1093,1189,972,3136,1502,1285,1499,4379,4462,3486
2541,2150,2195,2260,3162,3057,2678,3056,4032,3910,3444
2542,2183,2127,2230,3135,2952,2961,2694,4022,4270,4222
2543,1086,1197,1132,3162,1996,1611,1998,4036,3441,3906
2544,93,94,1129,497,133,1335,1334,612,611,3465
2545,761,388,1206,3188,5402,5395,5390,5393,5396,5392
2546,2036,2209,2234,3145,2374,2584,2583,5195,5077,4792
2547,1158,1170,1072,3182,1411,1942,1893,4783,5059,4285
2548,1135,975,1048,3154,1312,1518,1519,5029,4934,5103
2549,976,1128,1182,3193,1324,1528,1525,3635,3993,3924
2550,2261,2041,2170,3141,2533,2613,2616,3758,4754,3997
2551,2067,2066,2162,3138,2733,2727,2737,4292,4402,4758
2552,2037,2163,2244,3193,2383,2590,2589,4011,3613,4095
2553,2085,2118,2087,3146,2808,2807,2806,4264,4156,3347
2554,1080,1120,1083,3155,1967,1978,1977,3419,4225,3651
2555,251,252,746,1123,291,861,860,1452,1451,3788
2556,1143,1031,1030,3142,1773,1770,1774,4118,4974,3942
2557,1105,1159,979,3201,1541,1354,1540,5168,3901,5123
2558,2189,2043,2223,3156,2625,2627,2626,4109,4693,5045
2559,1178,1119,988,3103,1593,1382,1594,3480,3890,4745
2560,976,88,89,482,1319,128,1320,3745,597,596
2561,2251,2054,2162,3152,2419,2686,2687,5266,4764,4759
2562,2079,2226,2211,3172,2773,2609,2782,4742,4425,3849
2563,1000,15,14,384,1230,20,1231,3873,409,408
2564,1049,1163,1048,3112,1844,1843,1838,4599,4818,4870
2565,2180,2185,2097,3171,2651,2848,2858,4912,3331,4580
2566,1130,1001,1193,3152,1360,1660,1662,4570,5239,4093
2567,993,83,84,502,1304,123,1305,4738,582,581
2568,1065,1115,1171,3105,1914,1503,1909,4320,4281,3601
2569,2249,2124,2055,3164,2622,2692,2473,3460,3567,4769
2570,2210,2130,2233,3105,2975,2968,2564,4369,4355,3603
2571,429,43,42,1152,453,48,454,5047,1244,1243
2572,2137,2135,2157,3166,2994,2996,2995,4017,4201,4475
2573,2229,2198,2035,3158,2578,2368,2575,4788,5088,5083
2574,759,1204,433,3212,5376,5385,5407,5369,5355,5386
2575,1172,1068,1066,3108,1918,1917,1919,4586,3266,4360
2576,503,86,85,975,587,125,588,5276,1311,1310
2577,2030,2240,2193,3190,2546,2545,2432,3679,4703,5254
2578,501,160,161,2053,675,200,676,4573,2358,2357
2579,985,1107,1192,3134,1574,1577,1435,5236,3803,4088
2580,983,233,232,724,1394,272,1395,5249,804,803
2581,242,241,1141,752,281,1422,1421,831,830,3782
2582,102,101,488,1001,141,636,635,1359,1358,5327
2583,2143,2149,2145,3192,3031,3030,3029,4352,4528,5166
2584,1142,1166,1143,3173,1551,1791,1641,3864,4197,4119
2585,1061,1060,1072,3135,1887,1892,1891,4260,4154,4286
2586,987,1112,1202,3180,1590,1592,1477,4830,4247,4051
2587,1102,1094,1000,3205,1656,1653,1232,4714,4969,3615
2588,2158,2173,2059,3205,2715,2291,2714,4970,4719,3617
2589,2080,2079,2236,3147,2776,2781,2780,4414,5049,4878
2590,485,93,92,977,608,132,609,4343,1332,1331
2591,66,67,998,471,106,1254,1253,531,530,3869
2592,1065,1063,1066,3161,1904,1906,1905,4321,4363,4361
2593,149,148,2195,491,188,2322,2321,652,651,3909
2594,484,91,90,994,602,130,603,4217,1326,1325
2595,2204,2091,2227,3173,2834,2831,2657,3837,4163,4057
2596,2247,2176,2054,3163,2608,2689,2416,5260,4708,4765
2597,1193,1006,1008,3138,1661,1674,1676,4092,4679,4348
2598,258,737,987,259,881,5309,1473,298,882,1472
2599,738,1154,260,261,3594,1479,887,888,1478,300
2600,2232,2131,2133,3108,2978,2976,2979,4550,4367,3242
2601,2120,2121,2124,3127,2930,2940,2618,4365,4453,3566
2602,2145,2031,2239,3150,2549,2551,2550,5182,4069,4244
2603,225,224,1118,720,264,1369,1368,780,779,5081
2604,2060,2178,2264,3212,2719,2540,2308,5224,3447,5382
2605,2046,2268,2228,3130,2644,2643,2642,3815,4211,3978
2606,1007,999,1152,3085,1651,1245,1652,3856,5033,5000
2607,487,100,99,979,629,139,630,5272,1353,1352
2608,153,154,475,2166,193,662,661,2337,2336,3707
2609,2035,2248,2187,3179,2365,2577,2573,4841,4840,4873
2610,69,70,1132,491,109,1263,1262,540,539,3904
2611,1023,1019,1167,3172,1722,1536,1730,4517,4731,4214
2612,58,57,2060,427,63,2306,2305,469,468,5191
2613,2191,2152,2206,3177,3065,3063,2542,4516,4916,4623
2614,2063,182,181,500,2420,221,2421,4741,718,717
2615,308,2043,742,309,2442,4694,905,348,2443,904
2616,1144,1176,1145,3151,2027,2026,1462,5128,4947,4833
2617,1128,89,90,506,1322,129,1323,3990,600,599
2618,426,55,56,2058,464,61,465,4989,2300,2299
2619,1091,1089,1092,3196,2008,2010,2009,4485,4646,5073
2620,55,54,2219,428,60,2297,2296,462,461,4083
2621,502,162,163,2035,679,202,680,4838,2364,2363
2622,978,1175,1139,3148,1537,1539,1345,4391,5113,5092
2623,97,96,507,978,136,621,620,1344,1343,4393
2624,70,71,970,473,110,1266,1265,543,542,4080
2625,730,244,245,985,839,284,840,5290,1431,1430
2626,1173,975,1136,3145,1521,1315,1522,5153,4932,5127
2627,2096,2095,2244,3118,2845,2588,2849,4422,3723,4094
2628,314,313,725,2169,353,915,914,2460,2459,4298
2629,1081,1177,970,3150,1492,1491,1489,5179,4248,4082
2630,476,155,156,2033,665,195,666,3500,2343,2342
2631,73,74,971,493,113,1275,1274,552,551,3514
2632,1148,1185,1074,3139,1498,1944,1949,4929,4432,4563
2633,2194,722,307,308,3954,903,2439,2440,902,347
2634,495,156,157,2196,667,196,668,3950,2346,2345
2635,752,321,320,2171,928,360,929,4311,2481,2480
2636,751,319,318,2042,924,358,925,3348,2475,2474
2637,739,2062,303,302,5159,2425,891,892,2424,342
2638,498,99,98,1159,626,138,627,3899,1350,1349
2639,238,237,1158,757,277,1410,1409,819,818,4801
2640,250,251,733,997,290,858,857,1449,1448,3525
2641,243,244,753,1122,283,837,836,1428,1427,4301
2642,2206,2156,2240,3143,3070,3079,2547,4624,4999,4473
2643,150,149,2031,473,189,2325,2324,654,653,4067
2644,229,228,1119,722,268,1381,1380,792,791,3891
2645,2041,337,338,737,2531,377,2532,5287,963,962
2646,1134,78,79,477,1289,118,1290,3503,567,566
2647,72,73,1160,474,112,1272,1271,549,548,4115
2648,27,26,383,2061,32,417,416,2284,2283,5324
2649,335,336,2056,736,375,2526,2525,959,958,3921
2650,1092,1147,1180,3143,2011,1487,2021,5023,4626,4469
2651,334,335,2201,748,374,2523,2522,957,956,5256
2652,249,732,248,980,852,851,288,1442,4188,1443
2653,2128,2130,2131,3161,2963,2966,2965,4424,4356,4368
2654,2262,2168,2042,3195,2623,2621,2479,5344,4535,3284
2655,1016,1017,1014,3168,1709,1708,1706,4798,5305,4151
2656,2198,164,163,480,2366,203,2367,5301,682,681
2657,151,150,2224,492,190,2328,2327,656,655,3719
2658,2142,2223,2141,3191,3020,3019,3014,3322,5046,4814
2659,504,88,87,1137,593,127,594,3948,1317,1316
2660,1061,1063,1062,3160,1895,1894,1889,4261,4362,3256
2661,2264,760,430,3212,5397,5408,5400,5382,5398,5379
2662,430,759,433,3212,5409,5407,460,5379,5369,5386
2663,253,981,734,252,1454,3927,864,292,1455,863
2664,95,94,505,995,134,615,614,1338,1337,4784
2665,1042,1039,1106,3198,1809,1803,1810,3858,4114,4698
2666,385,758,4,2266,5405,765,399,5361,5365,2275
2667,2222,171,170,496,2387,210,2388,3476,696,695
2668,2128,2127,2126,3160,2954,2951,2955,4423,4271,3307
2669,386,2265,2,509,5351,2271,392,5406,5358,517
2670,255,1145,735,254,1460,5307,870,294,1461,869
2671,169,168,2037,506,208,2382,2381,692,691,4010
2672,6,431,510,2267,438,3261,522,2278,3340,3339
2673,315,314,745,2045,354,917,916,2463,2462,4961
2674,176,177,486,2211,216,708,707,2406,2405,4233
2675,71,72,1162,492,111,1269,1268,546,545,3699
2676,2180,2203,2245,3209,3081,2500,2654,4914,4998,4549
2677,2231,2129,2126,3185,2958,2957,2953,4499,4173,5054
2678,1170,237,236,726,1406,276,1407,4996,816,815
2679,2269,2174,2223,3203,2452,3023,2628,4812,4193,5200
2680,239,238,989,727,278,1413,1412,822,821,3588
2681,98,97,486,1167,137,624,623,1347,1346,4213
2682,982,230,229,742,1383,269,1384,4144,795,794
2683,1050,1051,1049,3111,1846,1845,1840,5110,4618,4598
2684,760,759,430,3212,775,5409,5408,5398,5369,5379
2685,2093,2092,2090,3189,2828,2827,2829,3418,3772,5157
2686,310,2263,743,311,2448,4074,909,350,2449,908
2687,227,226,1140,721,266,1375,1374,786,785,3791
2688,246,247,731,996,286,846,845,1437,1436,4251
2689,236,235,984,745,275,1404,1403,813,812,4919
2690,489,144,145,2218,642,184,643,5183,2310,2309
2691,426,42,41,999,450,47,451,5115,1241,1240
2692,152,151,2220,474,191,2331,2330,658,657,4117
2693,382,30,29,2217,423,35,424,3563,2293,2292
2694,2204,328,329,756,2504,368,2505,4084,945,944
2695,175,176,507,2199,215,706,705,2403,2402,4445
2696,323,324,2216,730,363,2490,2489,935,934,5096
2697,249,250,756,1142,289,855,854,1446,1445,4174
2698,1034,1033,1031,3189,1779,1778,1780,3814,3388,5227
2699,241,240,974,728,280,1419,1418,828,827,5357
2700,312,311,724,2044,351,911,910,2454,2453,5296
2701,231,230,1207,723,270,1387,1386,798,797,5149
2702,83,82,479,1126,122,579,578,1302,1301,4951
2703,2205,329,330,733,2507,369,2508,3526,947,946
2704,986,1164,1103,3186,1582,1581,1468,5044,4128,3626
2705,1104,1207,1161,3203,1393,1561,1964,4237,4771,5161
2706,2062,2217,2266,3188,2726,2295,2426,5099,3356,5362
2707,2061,2218,2265,3187,2723,2311,2285,5015,5156,5354
2708,1138,91,92,496,1328,131,1329,3475,606,605
2709,322,2046,321,729,2484,2483,361,930,4232,931
2710,57,56,2064,429,62,2303,2302,467,466,5107
2711,384,29,28,2059,421,34,422,3898,2290,2289
2712,313,312,744,2253,352,913,912,2457,2456,4029
2713,333,334,2050,735,373,2520,2519,955,954,5332
2714,309,2269,723,310,2445,5151,907,349,2446,906
2715,243,729,242,990,834,833,282,1424,4058,1425
2716,495,78,77,1133,563,117,564,3853,1287,1286
2717,1135,84,85,480,1307,124,1308,5323,585,584
2718,387,383,386,3187,404,418,401,5372,5331,5353
2719,494,154,155,2254,663,194,664,3818,2340,2339
2720,68,69,991,472,108,1260,1259,537,536,3270
2721,165,164,2209,503,204,2370,2369,684,683,5312
2722,1003,1205,1156,3187,1226,1252,1669,5020,5373,5158
2723,1155,1004,1206,3188,1672,1367,1236,3363,5101,5392
2724,1005,40,41,428,1237,46,1238,4230,448,447
2725,1144,747,254,253,5027,867,1457,1458,866,293
2726,2106,2109,2184,3211,2898,2900,2890,3766,5090,5057
2727,2221,170,169,484,2384,209,2385,4203,694,693
2728,489,512,509,3187,529,525,644,5278,5389,5360
2729,382,388,385,3188,414,415,425,3562,5396,5363
2730,739,758,761,3188,893,774,778,5238,5367,5393
2731,246,754,245,1192,843,842,285,1433,4086,1434
2732,477,157,158,2197,669,197,670,3529,2349,2348
2733,316,315,726,2200,355,919,918,2466,2465,4962
2734,8,2264,760,430,2280,5397,772,443,5400,5408
2735,433,759,7,1204,5407,768,440,5385,5376,1222
2736,433,427,430,3212,459,470,460,5386,5271,5379
2737,232,231,1200,743,271,1390,1389,801,800,4131
2738,96,95,483,1139,135,618,617,1341,1340,5025
2739,432,37,510,511,435,523,3467,3468,519,526
2740,1136,86,87,481,1313,126,1314,5079,591,590
2741,12,13,383,1003,18,403,402,1225,1224,5335
2742,338,339,2252,750,378,2535,2534,965,964,3968
2743,172,171,2038,485,211,2391,2390,698,697,4341
2744,146,145,2057,471,185,2313,2312,646,645,3932
2745,23,388,761,758,397,5402,762,766,5401,774
2746,479,161,162,2248,677,201,678,4893,2361,2360
2747,727,318,317,2249,922,357,923,3457,2472,2471
2748,478,159,160,2250,673,199,674,4747,2355,2354
2749,324,325,2047,754,364,2493,2492,937,936,4272
2750,986,748,256,255,5378,873,1463,1464,872,295
2751,510,431,37,432,3261,437,523,3467,446,435
2752,319,728,320,2262,927,926,359,2477,5337,2478
2753,148,147,2052,472,187,2319,2318,650,649,3286
2754,305,2258,721,306,2433,4939,899,345,2434,898
2755,387,9,512,509,389,514,5404,5403,516,525
2756,23,388,758,385,397,5401,766,398,415,5405
2757,303,2193,720,304,2427,5194,895,343,2428,894
2758,1184,755,248,247,4440,849,1439,1440,848,287
2759,9,387,386,509,389,401,393,516,5403,5406
2760,500,103,102,1157,638,142,639,4628,1362,1361
2761,336,337,2261,749,376,2529,2528,961,960,3757
2762,427,44,43,1002,456,49,457,5201,1247,1246
2763,179,2247,487,178,2411,5139,712,218,2412,711
2764,258,1199,749,257,1469,4004,879,297,1470,878
2765,81,80,478,1188,120,573,572,1296,1295,4772
2766,224,223,1004,739,263,1366,1365,777,776,5178
2767,339,340,2178,738,379,2538,2537,967,966,3629
2768,174,505,173,2257,702,701,213,2396,4948,2397
2769,760,738,759,3212,968,890,775,5398,3595,5369
2770,181,2251,488,180,2417,5267,716,220,2418,715
2771,494,76,75,1189,557,115,558,5022,1281,1280
2772,167,166,2255,504,206,2376,2375,688,687,4977
2773,323,2237,322,753,2487,2486,362,932,4060,933
2774,1190,234,233,744,1397,273,1398,3976,807,806
2775,511,432,5,1203,3468,434,520,3469,3470,1218
2776,1155,16,15,382,1233,21,1234,3568,412,411
2777,65,66,1156,489,105,1251,1250,528,527,5199
2778,331,332,2256,734,371,2514,2513,951,950,4986
2779,512,1205,1,387,5388,1213,513,5404,5370,390
2780,327,2245,326,755,2499,2498,366,940,4548,941
2781,758,4,23,385,765,25,766,5405,399,398
2782,386,2,9,509,392,11,393,5406,517,516
2783,431,37,6,510,437,39,438,3261,523,522
2784,388,1206,3,761,5395,1215,396,5402,5390,763
2785,260,1202,750,259,1475,4050,885,299,1476,884
2786,430,760,51,759,5408,771,444,5409,775,769
2787,759,51,430,433,769,444,5409,5407,442,460
2788,431,6,54,2267,438,59,439,3340,2278,2277
2789,2,26,2265,386,31,2272,2271,392,394,5351
2790,182,6,510,2267,222,522,524,2279,2278,3339
2791,433,7,44,1204,440,50,441,5385,1222,1221
2792,1206,3,16,388,1215,22,1216,5395,396,395
2793,1,65,1205,512,104,1214,1213,513,515,5388
2794,1206,223,3,761,1217,262,1215,5390,764,763
2795,511,5,103,1203,520,143,521,3469,1218,1220
2796,12,1,1205,387,17,1213,1212,391,390,5370
2797,40,5,432,1203,45,434,436,1219,1218,3470
2798,2265,144,2,509,2273,183,2271,5358,518,517
2799,758,4,2266,302,765,2275,5365,767,341,2276
2800,2264,8,58,430,2280,64,2281,5400,443,445
2801,385,4,30,2266,399,36,400,5361,2275,2274
2802,759,7,1204,261,768,1222,5376,770,301,1223
2803,760,51,8,430,771,53,772,5408,444,443
2804,759,7,51,433,768,52,769,5407,440,442
2805,2264,340,8,760,2282,380,2280,5397,773,772
2806,432,5,37,511,434,38,435,3468,520,519
2807,512,1,9,387,513,10,514,5404,390,389
2808,388,3,23,761,396,24,397,5402,763,762
2809,3133,1165,3132,1032,3335,3368,4497,3652,1782,3895
2810,3133,3132,1165,3119,4497,3368,3335,3318,3369,3334
2811,3133,2115,3132,3119,3355,3428,4497,3318,3354,3369
2812,3133,3132,2115,2181,4497,3428,3355,3682,3866,2843
2813,727,2042,318,2249,3458,2474,922,3457,2476,2472
2814,318,2042,727,751,2474,3458,922,925,3348,826
2815,2192,472,147,490,3605,649,2315,3793,538,648
2816,147,472,2192,2052,649,3605,2315,2319,3286,2320
2817,3201,2211,2226,3172,3850,2609,4428,3851,3849,4425
2818,3201,2226,2211,2040,4428,2609,3850,4179,2607,2410
2819,428,2267,54,2219,4026,2277,461,4083,2298,2297
2820,428,54,2267,431,461,2277,4026,463,439,3340
2821,1189,475,3136,1098,4899,3666,4462,1282,3663,3668
2822,3136,475,1189,494,3666,4899,4462,3819,559,5022
2823,3202,2228,2111,3165,3981,2912,3989,3830,3980,3881
2824,3202,2111,2228,2171,3989,2912,3981,4053,2921,2641
2825,3185,2125,3160,2126,4862,5410,3473,5054,2949,3307
2826,3185,3160,2125,3107,3473,5410,4862,3474,3258,3770
2827,3094,3160,2125,2126,3257,5410,3370,3305,3307,2949
2828,3094,2125,3160,3107,3370,5410,3257,3254,3770,3258
2829,995,497,3114,1129,4775,3466,4583,1339,3465,3247
2830,995,3114,497,505,4583,3466,4775,4784,5155,616
2831,1123,734,252,746,3928,863,1451,3788,865,861
2832,1123,252,734,981,1451,863,3928,1456,1455,3927
2833,3181,2219,2066,2063,4034,2711,5226,4386,2730,2729
2834,3181,2066,2219,3137,5226,2711,4034,3291,4435,4033
2835,2258,740,3104,2030,4842,3683,4578,2435,3684,3677
2836,2258,3104,740,721,4578,3683,4842,4939,3792,787
2837,384,1155,15,382,3874,1234,409,413,3568,411
2838,384,15,1155,1000,409,1234,3874,3873,1230,1235
2839,497,2257,3114,2164,4858,4699,3466,3464,2398,3246
2840,497,3114,2257,505,3466,4699,4858,616,5155,4948
2841,2255,482,3125,2163,4865,3715,4709,2380,3714,3611
2842,3125,482,2255,504,3715,4865,4709,3949,598,4977
2843,3203,2263,723,2174,4076,5411,4967,4193,2450,5203
2844,3203,723,2263,743,4967,5411,4076,4075,802,4074
2845,310,723,2263,2174,906,5411,2448,2451,5203,2450
2846,310,2263,723,743,2448,5411,906,909,4074,802
2847,3203,1200,231,743,4133,1390,4966,4075,4131,800
2848,3203,231,1200,1104,4966,1390,4133,4237,1391,1392
2849,746,2256,3120,734,4847,4744,3752,865,4986,3930
2850,746,3120,2256,2049,3752,4744,4847,3749,3754,2515
2851,3196,1179,1090,3102,4238,2012,4018,4014,4135,3736
2852,3196,1090,1179,1091,4018,2012,4238,4485,2007,2013
2853,2178,750,339,738,3967,964,2537,3629,889,967
2854,339,750,2178,2252,964,3967,2537,2535,3968,2539
2855,3208,1194,3125,1208,4773,4129,5040,4774,1829,5039
2856,3208,3125,1194,3131,5040,4129,4773,4692,3609,4130
2857,2052,491,3162,2195,4845,3905,3288,2323,3909,3910
2858,3162,491,2052,472,3905,4845,3288,3272,541,3286
2859,2169,744,313,725,3940,912,2459,4298,811,915
2860,2169,313,744,2253,2459,912,3940,2461,2457,4029
2861,749,2056,336,736,3581,2526,961,880,3921,958
2862,749,336,2056,2261,961,2526,3581,3757,2528,2530
2863,3210,2165,2213,3098,4622,2680,5114,4606,4568,4608
2864,3210,2213,2165,2053,5114,2680,4622,4602,2679,2681
2865,722,2043,3156,742,4810,4693,3892,796,4694,4145
2866,3156,2043,722,2194,4693,4810,3892,3956,2444,3954
2867,3196,1094,3178,1092,4892,5124,4533,5073,2016,5024
2868,3196,3178,1094,3175,4533,5124,4892,4239,4530,4891
2869,3211,2108,3112,2106,5091,5298,3705,3766,2896,3779
2870,3211,3112,2108,3111,3705,5298,5091,4346,4345,5089
2871,980,755,248,1184,4439,849,1443,1444,4440,1439
2872,980,248,755,732,1443,849,4439,4188,851,853
2873,729,2237,3130,753,4953,4061,4040,838,4060,4062
2874,729,3130,2237,2046,4040,4061,4953,4232,3815,2488
2875,1043,3208,1045,1044,4849,5285,1821,1815,4706,1820
2876,1045,3208,1043,3122,5285,4849,1821,4662,4850,4629
2877,3213,2102,2104,3122,4729,2879,5181,4633,4728,5180
2878,3213,2104,2102,2103,5181,2879,4729,4566,2878,2874
2879,3211,2104,3122,3123,5058,5180,3673,4166,5056,4164
2880,3211,3122,2104,2106,3673,5180,5058,3766,3764,2887
2881,3181,1005,1006,3137,4028,1648,5270,3291,4027,4678
2882,3181,1006,1005,1157,5270,1648,4028,4331,1659,1673
2883,3194,2080,2079,2078,4417,2776,4743,4318,2775,2771
2884,3194,2079,2080,3147,4743,2776,4417,4418,5049,4414
2885,2267,500,182,2063,4454,718,2279,2423,4741,2420
2886,182,500,2267,510,718,4454,2279,524,719,3339
2887,3203,231,1207,723,4966,1386,4771,4967,798,5149
2888,3203,1207,231,1104,4771,1386,4966,4237,1393,1391
2889,302,3188,739,2062,5366,5238,892,2424,5099,5159
2890,739,3188,302,758,5238,5366,892,893,5367,767
2891,3188,30,382,2217,5364,423,3562,3356,2293,3563
2892,3188,382,30,385,3562,423,5364,5363,425,400
2893,3187,144,489,2218,5359,642,5278,5156,2310,5183
2894,3187,489,144,509,5278,642,5359,5360,644,518
2895,3212,340,2178,2264,5399,2538,3447,5382,2282,2540
2896,3212,2178,340,738,3447,2538,5399,3595,3629,966
*NSET,NSET=FIXED
1,2,3,4,9,10,11,12,13,14,15,16
17,18,19,20,21,22,23,24,25,26,27,28
29,30,31,32,33,34,35,36,381,382,383,384
385,386,387,388,389,390,391,392,393,394,395,396
397,398,399,400,401,402,403,404,405,406,407,408
409,410,411,412,413,414,415,416,417,418,419,420
421,422,423,424,425
*NSET,NSET=TIP
5,6,7,8,37,38,39,40,41,42,43,44
45,46,47,48,49,50,51,52,53,54,55,56
57,58,59,60,61,62,63,64,426,427,428,429
430,431,432,433,434,435,436,437,438,439,440,441
442,443,444,445,446,447,448,449,450,451,452,453
454,455,456,457,458,459,460,461,462,463,464,465
466,467,468,469,470
*MATERIAL,NAME=REFERENCE
*ELASTIC
2000.0,0.35
*SOLID SECTION,ELSET=SOLID,MATERIAL=REFERENCE
*BOUNDARY
FIXED,1,3
*STEP
*STATIC
*CLOAD
5,3,-0.0012987012987013
6,3,-0.0012987012987013
7,3,-0.0012987012987013
8,3,-0.0012987012987013
37,3,-0.0012987012987013
38,3,-0.0012987012987013
39,3,-0.0012987012987013
40,3,-0.0012987012987013
41,3,-0.0012987012987013
42,3,-0.0012987012987013
43,3,-0.0012987012987013
44,3,-0.0012987012987013
45,3,-0.0012987012987013
46,3,-0.0012987012987013
47,3,-0.0012987012987013
48,3,-0.0012987012987013
49,3,-0.0012987012987013
50,3,-0.0012987012987013
51,3,-0.0012987012987013
52,3,-0.0012987012987013
53,3,-0.0012987012987013
54,3,-0.0012987012987013
55,3,-0.0012987012987013
56,3,-0.0012987012987013
57,3,-0.0012987012987013
58,3,-0.0012987012987013
59,3,-0.0012987012987013
60,3,-0.0012987012987013
61,3,-0.0012987012987013
62,3,-0.0012987012987013
63,3,-0.0012987012987013
64,3,-0.0012987012987013
426,3,-0.0012987012987013
427,3,-0.0012987012987013
428,3,-0.0012987012987013
429,3,-0.0012987012987013
430,3,-0.0012987012987013
431,3,-0.0012987012987013
432,3,-0.0012987012987013
433,3,-0.0012987012987013
434,3,-0.0012987012987013
435,3,-0.0012987012987013
436,3,-0.0012987012987013
437,3,-0.0012987012987013
438,3,-0.0012987012987013
439,3,-0.0012987012987013
440,3,-0.0012987012987013
441,3,-0.0012987012987013
442,3,-0.0012987012987013
443,3,-0.0012987012987013
444,3,-0.0012987012987013
445,3,-0.0012987012987013
446,3,-0.0012987012987013
447,3,-0.0012987012987013
448,3,-0.0012987012987013
449,3,-0.0012987012987013
450,3,-0.0012987012987013
451,3,-0.0012987012987013
452,3,-0.0012987012987013
453,3,-0.0012987012987013
454,3,-0.0012987012987013
455,3,-0.0012987012987013
456,3,-0.0012987012987013
457,3,-0.0012987012987013
458,3,-0.0012987012987013
459,3,-0.0012987012987013
460,3,-0.0012987012987013
461,3,-0.0012987012987013
462,3,-0.0012987012987013
463,3,-0.0012987012987013
464,3,-0.0012987012987013
465,3,-0.0012987012987013
466,3,-0.0012987012987013
467,3,-0.0012987012987013
468,3,-0.0012987012987013
469,3,-0.0012987012987013
470,3,-0.0012987012987013
*NODE PRINT,NSET=TIP
U
*NODE PRINT,NSET=FIXED,TOTALS=YES
RF
*END STEP
