*NODE
1,0,0,0
2,0,0,2
3,0,6,0
4,0,6,2
5,40,0,0
6,40,0,2
7,40,6,0
8,40,6,2
9,0,0,1
10,0,0,0.5
11,0,0,1.5
12,0,1.5,0
13,0,3,0
14,0,4.5,0
15,0,0.75,0
16,0,2.25,0
17,0,3.75,0
18,0,5.25,0
19,0,6,1
20,0,6,0.5
21,0,6,1.5
22,0,1.5,2
23,0,3,2
24,0,4.5,2
25,0,0.75,2
26,0,2.25,2
27,0,3.75,2
28,0,5.25,2
29,40,0,1
30,40,0,0.5
31,40,0,1.5
32,40,1.5,0
33,40,3,0
34,40,4.5,0
35,40,0.75,0
36,40,2.25,0
37,40,3.75,0
38,40,5.25,0
39,40,6,1
40,40,6,0.5
41,40,6,1.5
42,40,1.5,2
43,40,3,2
44,40,4.5,2
45,40,0.75,2
46,40,2.25,2
47,40,3.75,2
48,40,5.25,2
49,1.48148148148,0,0
50,2.96296296296,0,0
51,4.44444444444,0,0
52,5.92592592593,0,0
53,7.40740740741,0,0
54,8.88888888889,0,0
55,10.3703703704,0,0
56,11.8518518519,0,0
57,13.3333333333,0,0
58,14.8148148148,0,0
59,16.2962962963,0,0
60,17.7777777778,0,0
61,19.2592592593,0,0
62,20.7407407407,0,0
63,22.2222222222,0,0
64,23.7037037037,0,0
65,25.1851851852,0,0
66,26.6666666667,0,0
67,28.1481481481,0,0
68,29.6296296296,0,0
69,31.1111111111,0,0
70,32.5925925926,0,0
71,34.0740740741,0,0
72,35.5555555556,0,0
73,37.037037037,0,0
74,38.5185185185,0,0
75,0.740740740741,0,0
76,2.22222222222,0,0
77,3.7037037037,0,0
78,5.18518518519,0,0
79,6.66666666667,0,0
80,8.14814814815,0,0
81,9.62962962963,0,0
82,11.1111111111,0,0
83,12.5925925926,0,0
84,14.0740740741,0,0
85,15.5555555556,0,0
86,17.037037037,0,0
87,18.5185185185,0,0
88,20,0,0
89,21.4814814815,0,0
90,22.962962963,0,0
91,24.4444444444,0,0
92,25.9259259259,0,0
93,27.4074074074,0,0
94,28.8888888889,0,0
95,30.3703703704,0,0
96,31.8518518519,0,0
97,33.3333333333,0,0
98,34.8148148148,0,0
99,36.2962962963,0,0
100,37.7777777778,0,0
101,39.2592592593,0,0
102,1.48148148148,0,2
103,2.96296296296,0,2
104,4.44444444444,0,2
105,5.92592592593,0,2
106,7.40740740741,0,2
107,8.88888888889,0,2
108,10.3703703704,0,2
109,11.8518518519,0,2
110,13.3333333333,0,2
111,14.8148148148,0,2
112,16.2962962963,0,2
113,17.7777777778,0,2
114,19.2592592593,0,2
115,20.7407407407,0,2
116,22.2222222222,0,2
117,23.7037037037,0,2
118,25.1851851852,0,2
119,26.6666666667,0,2
120,28.1481481481,0,2
121,29.6296296296,0,2
122,31.1111111111,0,2
123,32.5925925926,0,2
124,34.0740740741,0,2
125,35.5555555556,0,2
126,37.037037037,0,2
127,38.5185185185,0,2
128,0.740740740741,0,2
129,2.22222222222,0,2
130,3.7037037037,0,2
131,5.18518518519,0,2
132,6.66666666667,0,2
133,8.14814814815,0,2
134,9.62962962963,0,2
135,11.1111111111,0,2
136,12.5925925926,0,2
137,14.0740740741,0,2
138,15.5555555556,0,2
139,17.037037037,0,2
140,18.5185185185,0,2
141,20,0,2
142,21.4814814815,0,2
143,22.962962963,0,2
144,24.4444444444,0,2
145,25.9259259259,0,2
146,27.4074074074,0,2
147,28.8888888889,0,2
148,30.3703703704,0,2
149,31.8518518519,0,2
150,33.3333333333,0,2
151,34.8148148148,0,2
152,36.2962962963,0,2
153,37.7777777778,0,2
154,39.2592592593,0,2
155,1.48148148148,6,0
156,2.96296296296,6,0
157,4.44444444444,6,0
158,5.92592592593,6,0
159,7.40740740741,6,0
160,8.88888888889,6,0
161,10.3703703704,6,0
162,11.8518518519,6,0
163,13.3333333333,6,0
164,14.8148148148,6,0
165,16.2962962963,6,0
166,17.7777777778,6,0
167,19.2592592593,6,0
168,20.7407407407,6,0
169,22.2222222222,6,0
170,23.7037037037,6,0
171,25.1851851852,6,0
172,26.6666666667,6,0
173,28.1481481481,6,0
174,29.6296296296,6,0
175,31.1111111111,6,0
176,32.5925925926,6,0
177,34.0740740741,6,0
178,35.5555555556,6,0
179,37.037037037,6,0
180,38.5185185185,6,0
181,0.740740740741,6,0
182,2.22222222222,6,0
183,3.7037037037,6,0
184,5.18518518519,6,0
185,6.66666666667,6,0
186,8.14814814815,6,0
187,9.62962962963,6,0
188,11.1111111111,6,0
189,12.5925925926,6,0
190,14.0740740741,6,0
191,15.5555555556,6,0
192,17.037037037,6,0
193,18.5185185185,6,0
194,20,6,0
195,21.4814814815,6,0
196,22.962962963,6,0
197,24.4444444444,6,0
198,25.9259259259,6,0
199,27.4074074074,6,0
200,28.8888888889,6,0
201,30.3703703704,6,0
202,31.8518518519,6,0
203,33.3333333333,6,0
204,34.8148148148,6,0
205,36.2962962963,6,0
206,37.7777777778,6,0
207,39.2592592593,6,0
208,1.48148148148,6,2
209,2.96296296296,6,2
210,4.44444444444,6,2
211,5.92592592593,6,2
212,7.40740740741,6,2
213,8.88888888889,6,2
214,10.3703703704,6,2
215,11.8518518519,6,2
216,13.3333333333,6,2
217,14.8148148148,6,2
218,16.2962962963,6,2
219,17.7777777778,6,2
220,19.2592592593,6,2
221,20.7407407407,6,2
222,22.2222222222,6,2
223,23.7037037037,6,2
224,25.1851851852,6,2
225,26.6666666667,6,2
226,28.1481481481,6,2
227,29.6296296296,6,2
228,31.1111111111,6,2
229,32.5925925926,6,2
230,34.0740740741,6,2
231,35.5555555556,6,2
232,37.037037037,6,2
233,38.5185185185,6,2
234,0.740740740741,6,2
235,2.22222222222,6,2
236,3.7037037037,6,2
237,5.18518518519,6,2
238,6.66666666667,6,2
239,8.14814814815,6,2
240,9.62962962963,6,2
241,11.1111111111,6,2
242,12.5925925926,6,2
243,14.0740740741,6,2
244,15.5555555556,6,2
245,17.037037037,6,2
246,18.5185185185,6,2
247,20,6,2
248,21.4814814815,6,2
249,22.962962963,6,2
250,24.4444444444,6,2
251,25.9259259259,6,2
252,27.4074074074,6,2
253,28.8888888889,6,2
254,30.3703703704,6,2
255,31.8518518519,6,2
256,33.3333333333,6,2
257,34.8148148148,6,2
258,36.2962962963,6,2
259,37.7777777778,6,2
260,39.2592592593,6,2
261,0,2.25,1
262,0,3.75,1
263,0,1.0074101069,1
264,0,4.9925898931,1
265,0,0.50370505345,1
266,0,0.50370505345,0.5
267,0,1.25370505345,0.5
268,0,0.50370505345,1.5
269,0,1.25370505345,1.5
270,0,4.74629494655,0.5
271,0,5.49629494655,0.5
272,0,5.49629494655,1
273,0,5.49629494655,1.5
274,0,4.74629494655,1.5
275,0,1.875,0.5
276,0,2.625,0.5
277,0,1.62870505345,1
278,0,3.375,0.5
279,0,4.125,0.5
280,0,3,1
281,0,4.37129494655,1
282,0,2.625,1.5
283,0,1.875,1.5
284,0,4.125,1.5
285,0,3.375,1.5
286,40,2.25,1
287,40,3.75,1
288,40,4.9925898931,1
289,40,1.0074101069,1
290,40,0.50370505345,0.5
291,40,0.50370505345,1
292,40,1.25370505345,0.5
293,40,0.50370505345,1.5
294,40,1.25370505345,1.5
295,40,5.49629494655,0.5
296,40,4.74629494655,0.5
297,40,5.49629494655,1
298,40,5.49629494655,1.5
299,40,4.74629494655,1.5
300,40,2.625,0.5
301,40,1.875,0.5
302,40,1.62870505345,1
303,40,4.125,0.5
304,40,3.375,0.5
305,40,3,1
306,40,4.37129494655,1
307,40,1.875,1.5
308,40,2.625,1.5
309,40,3.375,1.5
310,40,4.125,1.5
311,18.5185185185,0,1
312,15.5555555556,0,1
313,36.2962962963,0,1
314,14.0740740741,0,1
315,11.1111111111,0,1
316,22.962962963,0,1
317,12.5925925926,0,1
318,17.037037037,0,1
319,20,0,1
320,21.4814814815,0,1
321,33.3333333333,0,1
322,3.7037037037,0,1
323,2.22222222222,0,1
324,5.18518518519,0,1
325,24.4444444444,0,1
326,6.66666666667,0,1
327,27.4074074074,0,1
328,9.62962962963,0,1
329,8.14814814815,0,1
330,34.8148148148,0,1
331,37.7777777778,0,1
332,25.9259259259,0,1
333,28.8888888889,0,1
334,31.8518518519,0,1
335,30.3703703704,0,1
336,1.00023665551,0,1
337,38.9997633445,0,1
338,0.500118327754,0,0.5
339,0.500118327754,0,1
340,1.2408590685,0,0.5
341,0.500118327754,0,1.5
342,1.2408590685,0,1.5
343,39.4998816722,0,1
344,39.4998816722,0,0.5
345,38.7591409315,0,0.5
346,39.4998816722,0,1.5
347,38.7591409315,0,1.5
348,2.59259259259,0,0.5
349,1.85185185185,0,0.5
350,1.61122943887,0,1
351,4.07407407407,0,0.5
352,3.33333333333,0,0.5
353,2.96296296296,0,1
354,5.55555555556,0,0.5
355,4.81481481481,0,0.5
356,4.44444444444,0,1
357,7.03703703704,0,0.5
358,6.2962962963,0,0.5
359,5.92592592593,0,1
360,8.51851851852,0,0.5
361,7.77777777778,0,0.5
362,7.40740740741,0,1
363,10,0,0.5
364,9.25925925926,0,0.5
365,8.88888888889,0,1
366,11.4814814815,0,0.5
367,10.7407407407,0,0.5
368,10.3703703704,0,1
369,12.962962963,0,0.5
370,12.2222222222,0,0.5
371,11.8518518519,0,1
372,14.4444444444,0,0.5
373,13.7037037037,0,0.5
374,13.3333333333,0,1
375,15.9259259259,0,0.5
376,15.1851851852,0,0.5
377,14.8148148148,0,1
378,17.4074074074,0,0.5
379,16.6666666667,0,0.5
380,16.2962962963,0,1
381,18.8888888889,0,0.5
382,18.1481481481,0,0.5
383,17.7777777778,0,1
384,20.3703703704,0,0.5
385,19.6296296296,0,0.5
386,19.2592592593,0,1
387,21.8518518519,0,0.5
388,21.1111111111,0,0.5
389,20.7407407407,0,1
390,23.3333333333,0,0.5
391,22.5925925926,0,0.5
392,22.2222222222,0,1
393,24.8148148148,0,0.5
394,24.0740740741,0,0.5
395,23.7037037037,0,1
396,26.2962962963,0,0.5
397,25.5555555556,0,0.5
398,25.1851851852,0,1
399,27.7777777778,0,0.5
400,27.037037037,0,0.5
401,26.6666666667,0,1
402,29.2592592593,0,0.5
403,28.5185185185,0,0.5
404,28.1481481481,0,1
405,30.7407407407,0,0.5
406,30,0,0.5
407,29.6296296296,0,1
408,32.2222222222,0,0.5
409,31.4814814815,0,0.5
410,31.1111111111,0,1
411,33.7037037037,0,0.5
412,32.962962963,0,0.5
413,32.5925925926,0,1
414,35.1851851852,0,0.5
415,34.4444444444,0,0.5
416,34.0740740741,0,1
417,36.6666666667,0,0.5
418,35.9259259259,0,0.5
419,35.5555555556,0,1
420,38.1481481481,0,0.5
421,37.4074074074,0,0.5
422,37.037037037,0,1
423,38.3887705611,0,1
424,1.85185185185,0,1.5
425,2.59259259259,0,1.5
426,3.33333333333,0,1.5
427,4.07407407407,0,1.5
428,4.81481481481,0,1.5
429,5.55555555556,0,1.5
430,6.2962962963,0,1.5
431,7.03703703704,0,1.5
432,7.77777777778,0,1.5
433,8.51851851852,0,1.5
434,9.25925925926,0,1.5
435,10,0,1.5
436,10.7407407407,0,1.5
437,11.4814814815,0,1.5
438,12.2222222222,0,1.5
439,12.962962963,0,1.5
440,13.7037037037,0,1.5
441,14.4444444444,0,1.5
442,15.1851851852,0,1.5
443,15.9259259259,0,1.5
444,16.6666666667,0,1.5
445,17.4074074074,0,1.5
446,18.1481481481,0,1.5
447,18.8888888889,0,1.5
448,19.6296296296,0,1.5
449,20.3703703704,0,1.5
450,21.1111111111,0,1.5
451,21.8518518519,0,1.5
452,22.5925925926,0,1.5
453,23.3333333333,0,1.5
454,24.0740740741,0,1.5
455,24.8148148148,0,1.5
456,25.5555555556,0,1.5
457,26.2962962963,0,1.5
458,27.037037037,0,1.5
459,27.7777777778,0,1.5
460,28.5185185185,0,1.5
461,29.2592592593,0,1.5
462,30,0,1.5
463,30.7407407407,0,1.5
464,31.4814814815,0,1.5
465,32.2222222222,0,1.5
466,32.962962963,0,1.5
467,33.7037037037,0,1.5
468,34.4444444444,0,1.5
469,35.1851851852,0,1.5
470,35.9259259259,0,1.5
471,36.6666666667,0,1.5
472,37.4074074074,0,1.5
473,38.1481481481,0,1.5
474,18.5185185185,6,1
475,36.2962962963,6,1
476,14.0740740741,6,1
477,11.1111111111,6,1
478,22.962962963,6,1
479,12.5925925926,6,1
480,17.037037037,6,1
481,20,6,1
482,21.4814814815,6,1
483,15.5555555556,6,1
484,33.3333333333,6,1
485,3.7037037037,6,1
486,2.22222222222,6,1
487,5.18518518519,6,1
488,6.66666666667,6,1
489,24.4444444444,6,1
490,27.4074074074,6,1
491,9.62962962963,6,1
492,8.14814814815,6,1
493,34.8148148148,6,1
494,37.7777777778,6,1
495,28.8888888889,6,1
496,25.9259259259,6,1
497,31.8518518519,6,1
498,30.3703703704,6,1
499,1.00023665551,6,1
500,38.9997633445,6,1
501,0.500118327754,6,1
502,0.500118327754,6,0.5
503,1.2408590685,6,0.5
504,0.500118327754,6,1.5
505,1.2408590685,6,1.5
506,39.4998816722,6,0.5
507,39.4998816722,6,1
508,38.7591409315,6,0.5
509,39.4998816722,6,1.5
510,38.7591409315,6,1.5
511,1.85185185185,6,0.5
512,2.59259259259,6,0.5
513,1.61122943887,6,1
514,3.33333333333,6,0.5
515,4.07407407407,6,0.5
516,2.96296296296,6,1
517,4.81481481481,6,0.5
518,5.55555555556,6,0.5
519,4.44444444444,6,1
520,6.2962962963,6,0.5
521,7.03703703704,6,0.5
522,5.92592592593,6,1
523,7.77777777778,6,0.5
524,8.51851851852,6,0.5
525,7.40740740741,6,1
526,9.25925925926,6,0.5
527,10,6,0.5
528,8.88888888889,6,1
529,10.7407407407,6,0.5
530,11.4814814815,6,0.5
531,10.3703703704,6,1
532,12.2222222222,6,0.5
533,12.962962963,6,0.5
534,11.8518518519,6,1
535,13.7037037037,6,0.5
536,14.4444444444,6,0.5
537,13.3333333333,6,1
538,15.1851851852,6,0.5
539,15.9259259259,6,0.5
540,14.8148148148,6,1
541,16.6666666667,6,0.5
542,17.4074074074,6,0.5
543,16.2962962963,6,1
544,18.1481481481,6,0.5
545,18.8888888889,6,0.5
546,17.7777777778,6,1
547,19.6296296296,6,0.5
548,20.3703703704,6,0.5
549,19.2592592593,6,1
550,21.1111111111,6,0.5
551,21.8518518519,6,0.5
552,20.7407407407,6,1
553,22.5925925926,6,0.5
554,23.3333333333,6,0.5
555,22.2222222222,6,1
556,24.0740740741,6,0.5
557,24.8148148148,6,0.5
558,23.7037037037,6,1
559,25.5555555556,6,0.5
560,26.2962962963,6,0.5
561,25.1851851852,6,1
562,27.037037037,6,0.5
563,27.7777777778,6,0.5
564,26.6666666667,6,1
565,28.5185185185,6,0.5
566,29.2592592593,6,0.5
567,28.1481481481,6,1
568,30,6,0.5
569,30.7407407407,6,0.5
570,29.6296296296,6,1
571,31.4814814815,6,0.5
572,32.2222222222,6,0.5
573,31.1111111111,6,1
574,32.962962963,6,0.5
575,33.7037037037,6,0.5
576,32.5925925926,6,1
577,34.4444444444,6,0.5
578,35.1851851852,6,0.5
579,34.0740740741,6,1
580,35.9259259259,6,0.5
581,36.6666666667,6,0.5
582,35.5555555556,6,1
583,37.4074074074,6,0.5
584,38.1481481481,6,0.5
585,37.037037037,6,1
586,38.3887705611,6,1
587,2.59259259259,6,1.5
588,1.85185185185,6,1.5
589,4.07407407407,6,1.5
590,3.33333333333,6,1.5
591,5.55555555556,6,1.5
592,4.81481481481,6,1.5
593,7.03703703704,6,1.5
594,6.2962962963,6,1.5
595,8.51851851852,6,1.5
596,7.77777777778,6,1.5
597,10,6,1.5
598,9.25925925926,6,1.5
599,11.4814814815,6,1.5
600,10.7407407407,6,1.5
601,12.962962963,6,1.5
602,12.2222222222,6,1.5
603,14.4444444444,6,1.5
604,13.7037037037,6,1.5
605,15.9259259259,6,1.5
606,15.1851851852,6,1.5
607,17.4074074074,6,1.5
608,16.6666666667,6,1.5
609,18.8888888889,6,1.5
610,18.1481481481,6,1.5
611,20.3703703704,6,1.5
612,19.6296296296,6,1.5
613,21.8518518519,6,1.5
614,21.1111111111,6,1.5
615,23.3333333333,6,1.5
616,22.5925925926,6,1.5
617,24.8148148148,6,1.5
618,24.0740740741,6,1.5
619,26.2962962963,6,1.5
620,25.5555555556,6,1.5
621,27.7777777778,6,1.5
622,27.037037037,6,1.5
623,29.2592592593,6,1.5
624,28.5185185185,6,1.5
625,30.7407407407,6,1.5
626,30,6,1.5
627,32.2222222222,6,1.5
628,31.4814814815,6,1.5
629,33.7037037037,6,1.5
630,32.962962963,6,1.5
631,35.1851851852,6,1.5
632,34.4444444444,6,1.5
633,36.6666666667,6,1.5
634,35.9259259259,6,1.5
635,38.1481481481,6,1.5
636,37.4074074074,6,1.5
637,12.5925925926,4.7169994018,0
638,17.037037037,4.7169994018,0
639,19.8414591847,4.67152043674,0
640,22.962962963,4.77284043451,0
641,3.78693910727,1.21569956724,0
642,6.66666666667,1.2830005982,0
643,36.2107549538,1.2336132811,0
644,9.62962962963,1.2830005982,0
645,33.3333333333,4.7169994018,0
646,27.4074074074,4.7169994018,0
647,30.5292898726,4.66949267674,0
648,14.0740740741,1.2830005982,0
649,21.4814814815,1.2830005982,0
650,18.5185185185,1.2830005982,0
651,5.20559462425,4.73097704418,0
652,24.6029852597,1.32847956326,0
653,8.14814814815,4.7169994018,0
654,28.8888888889,1.2830005982,0
655,31.8518518519,1.2830005982,0
656,36.0404551516,4.86130458593,0
657,1.26333093911,3.68997401705,0
658,38.7447943267,2.25803307761,0
659,1.25211221164,2.25292882735,0
660,2.44539952684,2.95375096709,0
661,2.40925578278,4.60944828827,0
662,3.82204179932,3.6475200956,0
663,38.7485215744,3.74265000722,0
664,37.6358985581,2.96979676415,0
665,33.3333333333,1.2830005982,0
666,32.5925925926,2.51016016368,0
667,34.0740740741,2.50099874247,0
668,31.1111111111,2.5660011964,0
669,31.8518518519,3.8490017946,0
670,17.037037037,1.2830005982,0
671,17.7777777778,2.51016016368,0
672,16.2962962963,2.5008533249,0
673,19.4181787614,2.60553063107,0
674,18.5185185185,3.8490017946,0
675,15.5555555556,1.27214261962,0
676,14.8148148148,2.55333355472,0
677,13.3333333333,2.50804889007,0
678,15.5555555556,3.8490017946,0
679,13.8271604938,3.69889747293,0
680,28.9153754726,4.70908161429,0
681,28.1525625788,3.48852020506,0
682,26.6674024051,3.44308570385,0
683,27.4074074074,2.1509982054,0
684,25.8448749088,2.21476776208,0
685,25.0147920718,3.39690014382,0
686,29.5390951769,3.55600360448,0
687,34.8005579244,1.26393563636,0
688,35.4673715825,2.44441991,0
689,34.7678381596,3.79984813705,0
690,21.4814814815,4.7169994018,0
691,22.4691358025,3.58163997272,0
692,20.8291676038,3.38374255738,0
693,11.1111111111,1.2830005982,0
694,10.3703703704,2.5660011964,0
695,8.88888888889,2.51016016368,0
696,9.38271604938,3.70136062548,0
697,11.1111111111,3.8490017946,0
698,22.9893864322,1.234739393,0
699,23.7037037037,2.5660011964,0
700,8.14814814815,1.27369375941,0
701,7.40740740741,2.49937278599,0
702,5.91508453985,2.47891899994,0
703,6.66666666667,3.84942539995,0
704,5.19725085477,1.24079648635,0
705,11.8518518519,2.50050144596,0
706,12.5925925926,1.27764466765,0
707,20,1.2830005982,0
708,30.4331634494,1.24674699713,0
709,24.4444444444,4.7169994018,0
710,25.8976496968,4.71233077521,0
711,2.34554436121,1.4034677709,0
712,37.6690642013,4.68820488208,0
713,37.6763795235,1.36257493997,0
714,4.53917910609,2.39587026015,0
715,3.76885992275,4.99758908561,0
716,5.17604323531,3.45532399486,0
717,36.3299652447,3.50997608428,0
718,20.7902100138,2.15724587699,0
719,18.4868103555,5.04750432663,0
720,12.5432098765,3.45468980107,0
721,17.037037037,3.48520329592,0
722,22.0948117108,2.32865018988,0
723,15.5555555556,5.1236093589,0
724,23.714635199,3.796067307,0
725,26.1857544725,1.10703332211,0
726,14.2798353909,4.89808467137,0
727,11.1111111111,5.1236093589,0
728,9.8353909465,4.8984951968,0
729,8.0987654321,3.45546367538,0
730,27.4593731167,0.908206425142,0
731,31.8836357523,5.04709877463,0
732,33.3239380023,3.47540164792,0
733,28.8245885619,2.54272728664,0
734,6.67074855448,5.05948036919,0
735,34.7715551291,5.06903133426,0
736,1.09629377171,4.89883651262,0
737,1.09629377171,1.10116348738,0
738,38.9633595358,4.96121827351,0
739,38.9037062283,1.10116348738,0
740,30.6930432143,3.54817596466,0
741,19.6458664505,3.63349131328,0
742,24.8077885504,2.35794529015,0
743,29.9730767444,2.38806766747,0
744,36.6186110752,2.30744228805,0
745,3.39362146659,2.30073154722,0
746,0.548146885855,1.30058174369,0
747,0.548146885855,0.550581743689,0
748,1.2888876266,0.550581743689,0
749,0.548146885855,5.44941825631,0
750,0.548146885855,4.69941825631,0
751,1.2888876266,5.44941825631,0
752,39.4518531141,0.550581743689,0
753,39.4518531141,1.30058174369,0
754,38.7111123734,0.550581743689,0
755,39.4816797679,4.73060913675,0
756,39.4816797679,5.48060913675,0
757,38.7409390272,5.48060913675,0
758,0.626056105818,2.62646441368,0
759,0.626056105818,1.87646441368,0
760,1.17420299167,1.67704615737,0
761,0.631665469553,4.09498700852,0
762,0.631665469553,3.34498700852,0
763,1.25772157537,2.9714514222,0
764,1.17981235541,4.29440526484,0
765,39.3723971634,1.8790165388,0
766,39.3723971634,2.6290165388,0
767,38.8242502775,1.67959828249,0
768,39.3742607872,3.37132500361,0
769,39.3742607872,4.12132500361,0
770,38.7466579506,3.00034154242,0
771,38.8559405551,4.35193414037,0
772,1.91351292135,0.701733885449,0
773,2.65425366209,0.701733885449,0
774,1.72091906646,1.25231562914,0
775,3.37495103512,0.607849783618,0
776,4.11569177586,0.607849783618,0
777,3.06624173424,1.30958366907,0
778,4.82084764961,0.620398243175,0
779,5.56158839035,0.620398243175,0
780,4.49209498102,1.22824802679,0
781,6.2962962963,0.6415002991,0
782,7.03703703704,0.6415002991,0
783,5.93195876072,1.26189854227,0
784,7.77777777778,0.636846879707,0
785,8.51851851852,0.636846879707,0
786,7.40740740741,1.27834717881,0
787,9.25925925926,0.6415002991,0
788,10,0.6415002991,0
789,8.88888888889,1.27834717881,0
790,10.7407407407,0.6415002991,0
791,11.4814814815,0.6415002991,0
792,10.3703703704,1.2830005982,0
793,12.2222222222,0.638822333826,0
794,12.962962963,0.638822333826,0
795,11.8518518519,1.28032263293,0
796,13.7037037037,0.6415002991,0
797,14.4444444444,0.6415002991,0
798,13.3333333333,1.28032263293,0
799,15.1851851852,0.636071309808,0
800,15.9259259259,0.636071309808,0
801,14.8148148148,1.27757160891,0
802,16.6666666667,0.6415002991,0
803,17.4074074074,0.6415002991,0
804,16.2962962963,1.27757160891,0
805,18.1481481481,0.6415002991,0
806,18.8888888889,0.6415002991,0
807,17.7777777778,1.2830005982,0
808,19.6296296296,0.6415002991,0
809,20.3703703704,0.6415002991,0
810,19.2592592593,1.2830005982,0
811,21.1111111111,0.6415002991,0
812,21.8518518519,0.6415002991,0
813,20.7407407407,1.2830005982,0
814,22.6058043272,0.617369696498,0
815,23.3465450679,0.617369696498,0
816,22.2354339568,1.2588699956,0
817,24.1533444817,0.66423978163,0
818,24.8940852225,0.66423978163,0
819,23.7961858459,1.28160947813,0
820,25.6854698289,0.553516661055,0
821,26.4262105696,0.553516661055,0
822,25.3943698661,1.21775644268,0
823,27.0630198917,0.454103212571,0
824,27.8037606324,0.454103212571,0
825,26.8225637946,1.00761987363,0
826,28.5185185185,0.6415002991,0
827,29.2592592593,0.6415002991,0
828,28.1741310028,1.09560351167,0
829,30.0313965395,0.623373498566,0
830,30.7721372802,0.623373498566,0
831,29.6610261691,1.26487379767,0
832,31.4814814815,0.6415002991,0
833,32.2222222222,0.6415002991,0
834,31.1425076506,1.26487379767,0
835,32.962962963,0.6415002991,0
836,33.7037037037,0.6415002991,0
837,32.5925925926,1.2830005982,0
838,34.4373159992,0.631967818181,0
839,35.17805674,0.631967818181,0
840,34.0669456289,1.27346811728,0
841,35.8831552547,0.616806640552,0
842,36.6238959954,0.616806640552,0
843,35.5056564391,1.24877445873,0
844,37.3567082803,0.681287469987,0
845,38.097449021,0.681287469987,0
846,36.9435672387,1.29809411054,0
847,38.2900428759,1.23186921368,0
848,2.68610937287,5.30472414414,0
849,1.94536863213,5.30472414414,0
850,1.75277477724,4.75414240045,0
851,4.1066521836,5.49879454281,0
852,3.36591144286,5.49879454281,0
853,3.08905785276,4.80351868694,0
854,5.56576027509,5.36548852209,0
855,4.82501953435,5.36548852209,0
856,4.4872272735,4.8642830649,0
857,7.03907798094,5.52974018459,0
858,6.2983372402,5.52974018459,0
859,5.93817158937,4.89522870668,0
860,8.51851851852,5.3584997009,0
861,7.77777777778,5.3584997009,0
862,7.40944835131,4.88823988549,0
863,10.1028806584,5.4492475984,0
864,9.3621399177,5.4492475984,0
865,8.99176954733,4.8077472993,0
866,11.4814814815,5.56180467945,0
867,10.7407407407,5.56180467945,0
868,10.4732510288,5.01105227785,0
869,12.962962963,5.3584997009,0
870,12.2222222222,5.3584997009,0
871,11.8518518519,4.92030438035,0
872,14.5473251029,5.44904233569,0
873,13.8065843621,5.44904233569,0
874,13.4362139918,4.80754203659,0
875,15.9259259259,5.56180467945,0
876,15.1851851852,5.56180467945,0
877,14.9176954733,5.01084701513,0
878,17.4074074074,5.3584997009,0
879,16.6666666667,5.3584997009,0
880,16.2962962963,4.92030438035,0
881,18.8730348074,5.52375216331,0
882,18.1322940666,5.52375216331,0
883,17.7619236963,4.88225186421,0
884,20.2910999627,5.33576021837,0
885,19.550359222,5.33576021837,0
886,19.1641347701,4.85951238168,0
887,21.8518518519,5.3584997009,0
888,21.1111111111,5.3584997009,0
889,20.6614703331,4.69425991927,0
890,23.3333333333,5.38642021726,0
891,22.5925925926,5.38642021726,0
892,22.2222222222,4.74491991816,0
893,24.8148148148,5.3584997009,0
894,24.0740740741,5.3584997009,0
895,23.7037037037,4.74491991816,0
896,26.2821581817,5.35616538761,0
897,25.541417441,5.35616538761,0
898,25.1710470706,4.71466508851,0
899,27.7777777778,5.3584997009,0
900,27.037037037,5.3584997009,0
901,26.6525285521,4.71466508851,0
902,29.2725025511,5.35454080715,0
903,28.5317618104,5.35454080715,0
904,28.16139144,4.71304050805,0
905,30.8202004918,5.33474633837,0
906,30.0794597511,5.33474633837,0
907,29.7223326726,4.68928714552,0
908,32.2381141724,5.52354938731,0
909,31.4973734317,5.52354938731,0
910,31.2064628124,4.85829572568,0
911,33.7037037037,5.3584997009,0
912,32.962962963,5.3584997009,0
913,32.6084845428,4.88204908821,0
914,35.1635553423,5.53451566713,0
915,34.4228146016,5.53451566713,0
916,34.0524442312,4.89301536803,0
917,36.5387460943,5.43065229296,0
918,35.7980053536,5.43065229296,0
919,35.4060051404,4.96516796009,0
920,38.0937913599,5.34410244104,0
921,37.3530506192,5.34410244104,0
922,36.8547596765,4.774754734,0
923,38.3162118686,4.82471157779,0
924,13.2098765432,4.20794843737,0
925,13.1851851852,3.576793637,0
926,12.5679012346,4.08584460144,0
927,14.0534979424,4.29849107215,0
928,11.8518518519,4.2830005982,0
929,11.8271604938,3.65184579784,0
930,11.1111111111,4.48630557675,0
931,17.7777777778,4.2830005982,0
932,18.502664437,4.44825306061,0
933,17.7777777778,3.66710254526,0
934,17.037037037,4.10110134886,0
935,16.2962962963,4.2830005982,0
936,16.2962962963,3.66710254526,0
937,15.5555555556,4.48630557675,0
938,19.1799888516,4.26026111567,0
939,19.7436628176,4.15250587501,0
940,19.0821924845,3.74124655394,0
941,21.1553245427,4.05037097959,0
942,20.3353133943,4.02763149706,0
943,20.2375170272,3.50861693533,0
944,22.7160493827,4.17724020362,0
945,21.975308642,4.14931968726,0
946,23.338799081,4.28445387076,0
947,23.0918855007,3.68885363986,0
948,24.0795398217,4.2565333544,0
949,4.16305910668,1.80578491369,0
950,4.86821498043,1.81833337325,0
951,2.8695829139,1.85209965906,0
952,3.59028028693,1.75821555723,0
953,3.96640028634,2.34830090368,0
954,7.03703703704,1.8911866921,0
955,7.77777777778,1.8865332727,0
956,6.29087560326,1.88095979907,0
957,6.66124597363,2.48914589296,0
958,5.55616769731,1.85985774314,0
959,35.1339647534,1.85417777318,0
960,35.8390632681,1.83901659555,0
961,36.0429913288,2.37593109903,0
962,36.4146830145,1.77052778458,0
963,37.1474952993,1.83500861401,0
964,10,1.9245008973,0
965,10.7407407407,1.9245008973,0
966,9.25925925926,1.89658038094,0
967,9.62962962963,2.53808068004,0
968,8.51851851852,1.89192696155,0
969,32.5925925926,4.2830005982,0
970,31.8677438021,4.44805028461,0
971,33.3286356678,4.09620052486,0
972,32.5878949271,3.66220172126,0
973,34.0505857465,4.25842376942,0
974,34.0458880809,3.63762489248,0
975,34.7696966444,4.43443973565,0
976,28.5339690257,4.09880090968,0
977,27.7799849931,4.10275980343,0
978,27.4099824919,3.46580295445,0
979,27.0374049063,4.08004255282,0
980,26.2825260509,4.07770823953,0
981,31.1905708622,4.25924723567,0
982,31.2724475331,3.69858887963,0
983,30.6111665434,4.1088343207,0
984,30.0341925247,4.11274814061,0
985,29.2272353247,4.13254260939,0
986,30.1160691956,3.55208978457,0
987,14.4444444444,1.91816707646,0
988,15.1851851852,1.91273808717,0
989,13.7037037037,1.89552474414,0
990,14.0740740741,2.53069122239,0
991,12.962962963,1.89284677886,0
992,21.7881465961,1.80582539404,0
993,22.5420990715,1.78169479144,0
994,20.3951050069,1.7201232376,0
995,21.1358457476,1.7201232376,0
996,21.4425108623,2.24294803343,0
997,17.4074074074,1.89658038094,0
998,18.1481481481,1.89658038094,0
999,18.5979782696,2.55784539738,0
1000,18.96834864,1.94426561463,0
1001,19.7090893807,1.94426561463,0
1002,4.51381821178,4.18924856989,0
1003,3.79545086103,4.32255459061,0
1004,5.19081892978,4.09315051952,0
1005,4.49904251731,3.55142204523,0
1006,5.93613064546,4.29020122206,0
1007,5.92135495099,3.6523746974,0
1008,6.66870761057,4.45445288457,0
1009,25.2239300843,1.77162366267,0
1010,26.0153146907,1.66090054209,0
1011,24.7053869051,1.8432124267,0
1012,25.3263317296,2.28635652611,0
1013,23.3465450679,1.9003702947,0
1014,24.1533444817,1.94724037983,0
1015,24.2557461271,2.46197324327,0
1016,8.76543209877,4.20918001364,0
1017,9.60905349794,4.29992791114,0
1018,8.74074074074,3.57841215043,0
1019,8.12345679012,4.08623153859,0
1020,7.40740740741,4.28321240087,0
1021,7.38271604938,3.65244453766,0
1022,28.1481481481,1.7169994018,0
1023,27.4333902621,1.52960231527,0
1024,28.1159979847,2.34686274602,0
1025,28.8567387254,1.91286394242,0
1026,29.4309828166,1.83553413283,0
1027,30.2031200969,1.8174073323,0
1028,29.3988326531,2.46539747706,0
1029,32.2222222222,1.89658038094,0
1030,32.962962963,1.89658038094,0
1031,31.4814814815,1.9245008973,0
1032,31.8518518519,2.53808068004,0
1033,30.7721372802,1.90637409677,0
1034,35.4041466556,4.33057636149,0
1035,36.1852101982,4.1856403351,0
1036,35.5489017021,3.65491211066,0
1037,36.999514723,4.09909048318,0
1038,1.85436523297,3.32186249207,0
1039,1.84875586924,2.60333989722,0
1040,1.83629336094,4.14971115266,0
1041,2.42732765481,3.78159962768,0
1042,38.1903464424,2.61391492088,0
1043,38.1922100663,3.35622338569,0
1044,38.2105869251,1.81030400879,0
1045,37.6561390408,2.16618585206,0
1046,2.39547194403,2.178609369,0
1047,1.79882828642,1.82819829913,0
1048,3.11564879105,4.12848419194,0
1049,3.13372066308,3.30063553135,0
1050,3.60783163296,2.97412582141,0
1051,2.91951049672,2.62724125716,0
1052,4.1806104527,3.02169517788,0
1053,4.8576111707,2.92559712751,0
1054,37.6524813797,3.82900082311,0
1055,38.2087928878,4.21542744465,0
1056,36.9829319014,3.23988642421,0
1057,37.1272548166,2.6386195261,0
1058,36.4742881599,2.90870918616,0
1059,33.3333333333,2.50557945308,0
1060,33.7037037037,1.89199967033,0
1061,34.4373159992,1.88246718942,0
1062,32.9582652974,2.9927809058,0
1063,33.6990060382,2.98820019519,0
1064,31.4814814815,3.2075014955,0
1065,32.2222222222,3.17958097914,0
1066,34.7707228283,2.47270932624,0
1067,34.4209561168,3.15042343976,0
1068,35.117604871,3.12213402352,0
1069,30.9020771627,3.05708858053,0
1070,30.5420939277,2.47703443193,0
1071,30.3330599793,2.96812181607,0
1072,16.6666666667,1.89192696155,0
1073,17.037037037,2.50550674429,0
1074,15.9259259259,1.88649797226,0
1075,16.6666666667,2.99302831041,0
1076,17.4074074074,2.9976817298,0
1077,18.1481481481,3.17958097914,0
1078,18.96834864,3.22726621283,0
1079,15.5555555556,2.52709343981,0
1080,15.1851851852,3.20116767466,0
1081,15.9259259259,3.17492755975,0
1082,19.532022606,3.11951097217,0
1083,20.1236731826,2.99463659423,0
1084,20.8096888088,2.77049421719,0
1085,20.1041943876,2.38138825403,0
1086,13.5802469136,3.1034731815,0
1087,14.3209876543,3.12611551382,0
1088,14.6913580247,3.77394963376,0
1089,12.9382716049,2.98136934557,0
1090,12.5925925926,2.50427516802,0
1091,12.2222222222,1.88907305681,0
1092,12.1975308642,2.97759562352,0
1093,14.9176954733,4.37354323298,0
1094,28.8458288778,3.52226190477,0
1095,27.7799849931,2.81975920523,0
1096,27.0374049063,2.79704195462,0
1097,28.4885755703,3.01562374585,0
1098,29.1818418694,3.04936544556,0
1099,26.6261411581,2.18288298374,0
1100,26.2561386569,2.82892673296,0
1101,25.4298334903,2.80583395295,0
1102,25.8410972384,3.41999292383,0
1103,25.4562208843,4.05461545951,0
1104,26.79658094,1.62901576376,0
1105,24.9112903111,2.87742271698,0
1106,24.3592478877,2.98145067011,0
1107,23.7091694513,3.1810342517,0
1108,24.3647136354,3.59648372541,0
1109,24.7296182581,4.05694977281,0
1110,29.7560859606,2.97203563598,0
1111,35.8986684136,2.97719799714,0
1112,21.6491517032,3.48269126505,0
1113,22.2819737566,2.9551450813,0
1114,21.4619896573,2.85619637363,0
1115,23.0864197531,3.07382058456,0
1116,22.8992577073,2.44732569314,0
1117,11.1111111111,2.53325132118,0
1118,11.4814814815,1.89175102208,0
1119,9.13580246914,3.10576039458,0
1120,9.87654320988,3.13368091094,0
1121,10.2469135802,3.77518121004,0
1122,10.7407407407,3.2075014955,0
1123,11.4814814815,3.17475162028,0
1124,8.49382716049,2.98281191953,0
1125,8.14814814815,2.50476647484,0
1126,7.75308641975,2.97741823069,0
1127,10.4732510288,4.3737484957,0
1128,6.29087560326,3.16417219994,0
1129,7.03703703704,3.17439909297,0
1130,5.54556388758,2.9671214974,0
1131,5.22713182297,2.43739463004,0
1132,12.5925925926,4.7169994018,2
1133,17.037037037,4.7169994018,2
1134,19.8414591847,4.67152043674,2
1135,22.962962963,4.7169994018,2
1136,3.78693910727,1.21569956724,2
1137,6.66666666667,1.2830005982,2
1138,36.2107549538,1.2336132811,2
1139,9.62962962963,1.2830005982,2
1140,33.4922619769,4.66970263829,2
1141,27.5670501524,4.71693885465,2
1142,30.3703703704,1.2830005982,2
1143,14.0740740741,1.2830005982,2
1144,21.6411242264,1.28306114535,2
1145,18.5185185185,1.2830005982,2
1146,5.20559462425,4.73097704418,2
1147,24.4444444444,1.2830005982,2
1148,8.14814814815,4.7169994018,2
1149,36.0404551516,4.86130458593,2
1150,33.3333333333,1.22715956549,2
1151,27.4074074074,1.2830005982,2
1152,30.3703703704,4.7169994018,2
1153,1.26333093911,3.68997401705,2
1154,38.7447943267,2.25803307761,2
1155,1.25211221164,2.25292882735,2
1156,2.44539952684,2.95375096709,2
1157,2.40925578278,4.60944828827,2
1158,3.82204179932,3.6475200956,2
1159,38.7485215744,3.74265000722,2
1160,37.6358985581,2.96979676415,2
1161,17.037037037,1.2830005982,2
1162,17.7777777778,2.51016016368,2
1163,16.2962962963,2.5008533249,2
1164,19.4181787614,2.60553063107,2
1165,18.5185185185,3.8490017946,2
1166,15.5555555556,1.27214261962,2
1167,14.8148148148,2.55333355472,2
1168,13.3333333333,2.50804889007,2
1169,15.5555555556,3.8490017946,2
1170,13.8271604938,3.69889747293,2
1171,28.8888888889,1.2830005982,2
1172,29.6296296296,2.51016016368,2
1173,31.2707538561,2.55808445316,2
1174,28.2109412272,2.52044075655,2
1175,26.677462279,2.60992079066,2
1176,28.9111710592,3.83855257698,2
1177,34.8005579244,1.2654625399,2
1178,33.9135057015,2.60113768009,2
1179,35.440610187,2.46136421686,2
1180,34.8148148148,3.84987430002,2
1181,31.878458976,1.21653326949,2
1182,21.4550580123,4.70941957429,2
1183,22.2806113897,3.46898910008,2
1184,23.7134352316,3.4956715524,2
1185,22.9854432507,2.16127121567,2
1186,24.4460663658,4.72727819327,2
1187,25.3479920818,3.45049127567,2
1188,20.7407407407,3.4339988036,2
1189,11.1111111111,1.2830005982,2
1190,10.3703703704,2.5660011964,2
1191,8.88888888889,2.51016016368,2
1192,9.38271604938,3.70136062548,2
1193,11.1111111111,3.8490017946,2
1194,31.9411330381,4.74537020895,2
1195,32.6290299782,3.44161182082,2
1196,8.14814814815,1.27369375941,2
1197,7.40740740741,2.49937278599,2
1198,5.91508453985,2.47891899994,2
1199,6.66666666667,3.84942539995,2
1200,5.19725085477,1.24079648635,2
1201,25.9799378531,4.77729222058,2
1202,25.9905182737,1.25406692951,2
1203,11.8518518519,2.50050144596,2
1204,12.5925925926,1.27764466765,2
1205,20.0530937079,1.23375789579,2
1206,2.34554436121,1.4034677709,2
1207,37.6690642013,4.68820488208,2
1208,37.6763795235,1.36257493997,2
1209,4.53917910609,2.39587026015,2
1210,3.76885992275,4.99758908561,2
1211,5.17604323531,3.45532399486,2
1212,36.3390763962,3.51617124051,2
1213,20.7407407407,2.23095500012,2
1214,18.4868103555,5.04750432663,2
1215,12.5432098765,3.45468980107,2
1216,17.037037037,3.48520329592,2
1217,15.5555555556,5.1236093589,2
1218,14.2798353909,4.89808467137,2
1219,22.9993875695,0.945466591843,2
1220,11.1111111111,5.1236093589,2
1221,9.8353909465,4.8984951968,2
1222,8.0987654321,3.45546367538,2
1223,26.6690416579,3.8038305438,2
1224,24.4106517336,2.54778284639,2
1225,30.3339589001,3.45506340113,2
1226,28.9252738719,5.05449816669,2
1227,32.605016369,2.20890535781,2
1228,6.67074855448,5.05948036919,2
1229,34.7954323146,5.07617630485,2
1230,1.09629377171,4.89883651262,2
1231,1.09629377171,1.10116348738,2
1232,38.9633595358,4.96121827351,2
1233,38.9037062283,1.10116348738,2
1234,19.6297243014,3.6400129165,2
1235,33.7050930974,3.63451235512,2
1236,31.3090492286,3.78342585717,2
1237,27.6577140198,3.53609198557,2
1238,25.3742137625,2.22905248808,2
1239,21.7293057513,2.47361641263,2
1240,36.6173246142,2.30912883784,2
1241,3.39362146659,2.30073154722,2
1242,0.548146885855,0.550581743689,2
1243,0.548146885855,1.30058174369,2
1244,1.2888876266,0.550581743689,2
1245,0.548146885855,4.69941825631,2
1246,0.548146885855,5.44941825631,2
1247,1.2888876266,5.44941825631,2
1248,39.4518531141,1.30058174369,2
1249,39.4518531141,0.550581743689,2
1250,38.7111123734,0.550581743689,2
1251,39.4816797679,5.48060913675,2
1252,39.4816797679,4.73060913675,2
1253,38.7409390272,5.48060913675,2
1254,0.626056105818,1.87646441368,2
1255,0.626056105818,2.62646441368,2
1256,1.17420299167,1.67704615737,2
1257,0.631665469553,3.34498700852,2
1258,0.631665469553,4.09498700852,2
1259,1.25772157537,2.9714514222,2
1260,1.17981235541,4.29440526484,2
1261,39.3723971634,2.6290165388,2
1262,39.3723971634,1.8790165388,2
1263,38.8242502775,1.67959828249,2
1264,39.3742607872,4.12132500361,2
1265,39.3742607872,3.37132500361,2
1266,38.7466579506,3.00034154242,2
1267,38.8559405551,4.35193414037,2
1268,2.65425366209,0.701733885449,2
1269,1.91351292135,0.701733885449,2
1270,1.72091906646,1.25231562914,2
1271,4.11569177586,0.607849783618,2
1272,3.37495103512,0.607849783618,2
1273,3.06624173424,1.30958366907,2
1274,5.56158839035,0.620398243175,2
1275,4.82084764961,0.620398243175,2
1276,4.49209498102,1.22824802679,2
1277,7.03703703704,0.6415002991,2
1278,6.2962962963,0.6415002991,2
1279,5.93195876072,1.26189854227,2
1280,8.51851851852,0.636846879707,2
1281,7.77777777778,0.636846879707,2
1282,7.40740740741,1.27834717881,2
1283,10,0.6415002991,2
1284,9.25925925926,0.6415002991,2
1285,8.88888888889,1.27834717881,2
1286,11.4814814815,0.6415002991,2
1287,10.7407407407,0.6415002991,2
1288,10.3703703704,1.2830005982,2
1289,12.962962963,0.638822333826,2
1290,12.2222222222,0.638822333826,2
1291,11.8518518519,1.28032263293,2
1292,14.4444444444,0.6415002991,2
1293,13.7037037037,0.6415002991,2
1294,13.3333333333,1.28032263293,2
1295,15.9259259259,0.636071309808,2
1296,15.1851851852,0.636071309808,2
1297,14.8148148148,1.27757160891,2
1298,17.4074074074,0.6415002991,2
1299,16.6666666667,0.6415002991,2
1300,16.2962962963,1.27757160891,2
1301,18.8888888889,0.6415002991,2
1302,18.1481481481,0.6415002991,2
1303,17.7777777778,1.2830005982,2
1304,20.3969172243,0.616878947894,2
1305,19.6561764836,0.616878947894,2
1306,19.2858061132,1.25837924699,2
1307,21.9316732243,0.641530572674,2
1308,21.1909324836,0.641530572674,2
1309,20.8471089672,1.25840952057,2
1310,23.3515456366,0.472733295921,2
1311,22.6108048959,0.472733295921,2
1312,22.320255898,1.1142638686,2
1313,24.8148148148,0.6415002991,2
1314,24.0740740741,0.6415002991,2
1315,23.721916007,1.11423359502,2
1316,26.3285924702,0.627033464754,2
1317,25.5878517294,0.627033464754,2
1318,25.217481359,1.26853376385,2
1319,27.7777777778,0.6415002991,2
1320,27.037037037,0.6415002991,2
1321,26.6989628405,1.26853376385,2
1322,29.2592592593,0.6415002991,2
1323,28.5185185185,0.6415002991,2
1324,28.1481481481,1.2830005982,2
1325,30.7407407407,0.6415002991,2
1326,30,0.6415002991,2
1327,29.6296296296,1.2830005982,2
1328,32.2355257843,0.608266634747,2
1329,31.4947850436,0.608266634747,2
1330,31.1244146732,1.24976693385,2
1331,33.7037037037,0.613579782743,2
1332,32.962962963,0.613579782743,2
1333,32.6058961547,1.22184641749,2
1334,35.17805674,0.632731269949,2
1335,34.4373159992,0.632731269949,2
1336,34.0669456289,1.24631105269,2
1337,36.6238959954,0.616806640552,2
1338,35.8831552547,0.616806640552,2
1339,35.5056564391,1.2495379105,2
1340,38.097449021,0.681287469987,2
1341,37.3567082803,0.681287469987,2
1342,36.9435672387,1.29809411054,2
1343,38.2900428759,1.23186921368,2
1344,1.94536863213,5.30472414414,2
1345,2.68610937287,5.30472414414,2
1346,1.75277477724,4.75414240045,2
1347,3.36591144286,5.49879454281,2
1348,4.1066521836,5.49879454281,2
1349,3.08905785276,4.80351868694,2
1350,4.82501953435,5.36548852209,2
1351,5.56576027509,5.36548852209,2
1352,4.4872272735,4.8642830649,2
1353,6.2983372402,5.52974018459,2
1354,7.03907798094,5.52974018459,2
1355,5.93817158937,4.89522870668,2
1356,7.77777777778,5.3584997009,2
1357,8.51851851852,5.3584997009,2
1358,7.40944835131,4.88823988549,2
1359,9.3621399177,5.4492475984,2
1360,10.1028806584,5.4492475984,2
1361,8.99176954733,4.8077472993,2
1362,10.7407407407,5.56180467945,2
1363,11.4814814815,5.56180467945,2
1364,10.4732510288,5.01105227785,2
1365,12.2222222222,5.3584997009,2
1366,12.962962963,5.3584997009,2
1367,11.8518518519,4.92030438035,2
1368,13.8065843621,5.44904233569,2
1369,14.5473251029,5.44904233569,2
1370,13.4362139918,4.80754203659,2
1371,15.1851851852,5.56180467945,2
1372,15.9259259259,5.56180467945,2
1373,14.9176954733,5.01084701513,2
1374,16.6666666667,5.3584997009,2
1375,17.4074074074,5.3584997009,2
1376,16.2962962963,4.92030438035,2
1377,18.1322940666,5.52375216331,2
1378,18.8730348074,5.52375216331,2
1379,17.7619236963,4.88225186421,2
1380,19.550359222,5.33576021837,2
1381,20.2910999627,5.33576021837,2
1382,19.1641347701,4.85951238168,2
1383,21.0978993765,5.35470978715,2
1384,21.8386401172,5.35470978715,2
1385,20.6482585985,4.69047000552,2
1386,22.5925925926,5.3584997009,2
1387,23.3333333333,5.3584997009,2
1388,22.2090104876,4.71320948805,2
1389,24.0748850347,5.36363909663,2
1390,24.8156257755,5.36363909663,2
1391,23.7045146644,4.72213879753,2
1392,25.5825615191,5.38864611029,2
1393,26.3233022599,5.38864611029,2
1394,25.2130021094,4.75228520692,2
1395,27.1168584095,5.35846942733,2
1396,27.8575991503,5.35846942733,2
1397,26.7734940027,4.74711553762,2
1398,28.53671101,5.52724908334,2
1399,29.2774517508,5.52724908334,2
1400,28.2461620122,4.88571851067,2
1401,30,5.3584997009,2
1402,30.7407407407,5.3584997009,2
1403,29.6478221212,4.88574878424,2
1404,31.5261220746,5.37268510447,2
1405,32.2668628154,5.37268510447,2
1406,31.1557517042,4.73118480538,2
1407,33.0424272847,5.33485131915,2
1408,33.7831680255,5.33485131915,2
1409,32.7166975075,4.70753642362,2
1410,34.4347531943,5.53808815242,2
1411,35.1754939351,5.53808815242,2
1412,34.1438471457,4.87293947157,2
1413,35.7980053536,5.43065229296,2
1414,36.5387460943,5.43065229296,2
1415,35.4179437331,4.96874044539,2
1416,37.3530506192,5.34410244104,2
1417,38.0937913599,5.34410244104,2
1418,36.8547596765,4.774754734,2
1419,38.3162118686,4.82471157779,2
1420,12.5679012346,4.08584460144,2
1421,13.1851851852,3.576793637,2
1422,13.2098765432,4.20794843737,2
1423,14.0534979424,4.29849107215,2
1424,11.8271604938,3.65184579784,2
1425,11.8518518519,4.2830005982,2
1426,11.1111111111,4.48630557675,2
1427,18.502664437,4.44825306061,2
1428,17.7777777778,4.2830005982,2
1429,17.037037037,4.10110134886,2
1430,17.7777777778,3.66710254526,2
1431,16.2962962963,3.66710254526,2
1432,16.2962962963,4.2830005982,2
1433,15.5555555556,4.48630557675,2
1434,19.1799888516,4.26026111567,2
1435,19.0741214099,3.74450735555,2
1436,19.735591743,4.15576667662,2
1437,20.2910999627,4.05275962017,2
1438,21.0978993765,4.07170918895,2
1439,20.185232521,3.53700586005,2
1440,21.867834701,4.08920433719,2
1441,22.6217871763,4.09299425094,2
1442,22.9970233107,3.48233032624,2
1443,23.3381990973,4.1063354771,2
1444,24.0797507987,4.11147487283,2
1445,4.86821498043,1.81833337325,2
1446,4.16305910668,1.80578491369,2
1447,3.59028028693,1.75821555723,2
1448,2.8695829139,1.85209965906,2
1449,3.96640028634,2.34830090368,2
1450,7.77777777778,1.8865332727,2
1451,7.03703703704,1.8911866921,2
1452,6.66124597363,2.48914589296,2
1453,6.29087560326,1.88095979907,2
1454,5.55616769731,1.85985774314,2
1455,35.8256825704,1.84748874898,2
1456,35.1205840557,1.86341337838,2
1457,36.414039784,1.77137105947,2
1458,36.0289674006,2.38524652735,2
1459,37.1468520689,1.83585188891,2
1460,10.7407407407,1.9245008973,2
1461,10,1.9245008973,2
1462,9.62962962963,2.53808068004,2
1463,9.25925925926,1.89658038094,2
1464,8.51851851852,1.89192696155,2
1465,34.8051235647,4.46302530243,2
1466,34.1535383958,4.25978846915,2
1467,33.5986775371,4.1521074967,2
1468,34.2599539561,3.74219332757,2
1469,32.2850815082,4.09349101488,2
1470,33.0606459776,4.05565722956,2
1471,33.1670615378,3.53806208797,2
1472,28.9182224656,4.44652537183,2
1473,28.2391106058,4.27774571581,2
1474,27.6123820861,4.12651542011,2
1475,28.2844425395,3.68732228127,2
1476,26.3244897555,4.29056138219,2
1477,27.1180459052,4.26038469922,2
1478,27.1633778389,3.66996126468,2
1479,30,1.89658038094,2
1480,29.2592592593,1.89658038094,2
1481,30.8205621132,1.92054252568,2
1482,30.4501917429,2.53412230842,2
1483,31.574606416,1.88730886133,2
1484,15.1851851852,1.91273808717,2
1485,14.4444444444,1.91816707646,2
1486,14.0740740741,2.53069122239,2
1487,13.7037037037,1.89552474414,2
1488,12.962962963,1.89284677886,2
1489,22.9924154101,1.55336890375,2
1490,22.3132837386,1.72216618051,2
1491,22.357374501,2.31744381415,2
1492,21.6852149889,1.87833877899,2
1493,21.1909324836,1.75700807273,2
1494,20.3969172243,1.73235644795,2
1495,21.235023246,2.35228570637,2
1496,18.1481481481,1.89658038094,2
1497,17.4074074074,1.89658038094,2
1498,18.96834864,1.94426561463,2
1499,18.5979782696,2.55784539738,2
1500,19.7356362347,1.91964426343,2
1501,3.79545086103,4.32255459061,2
1502,4.51381821178,4.18924856989,2
1503,4.49904251731,3.55142204523,2
1504,5.19081892978,4.09315051952,2
1505,5.92135495099,3.6523746974,2
1506,5.93613064546,4.29020122206,2
1507,6.66870761057,4.45445288457,2
1508,23.7149438476,1.72213590693,2
1509,24.427548089,1.91539172229,2
1510,23.6980474921,2.35452703103,2
1511,25.6823660181,1.7415597088,2
1512,24.9093291035,1.75602654314,2
1513,24.892432748,2.38841766724,2
1514,9.60905349794,4.29992791114,2
1515,8.76543209877,4.20918001364,2
1516,8.12345679012,4.08623153859,2
1517,8.74074074074,3.57841215043,2
1518,7.38271604938,3.65244453766,2
1519,7.40740740741,4.28321240087,2
1520,35.5769456055,3.68302277026,2
1521,36.1897657739,4.18873791322,2
1522,35.4276349832,4.35558944297,2
1523,37.0040702988,4.10218806129,2
1524,34.357031813,1.93330010999,2
1525,33.6234195174,1.91414862279,2
1526,33.2592610353,2.40502151895,2
1527,32.9691748512,1.71803246165,2
1528,32.2417376725,1.71271931365,2
1529,28.549915058,1.90172067737,2
1530,27.8091743173,1.90172067737,2
1531,27.4442017531,2.5651807736,2
1532,27.0424348432,1.94646069443,2
1533,26.3339902763,1.93199386008,2
1534,29.6225649796,3.64680798905,2
1535,30.3521646352,4.08603140146,2
1536,29.6407707148,4.27777598939,2
1537,30.8397097995,4.25021262949,2
1538,31.6250911333,4.26439803306,2
1539,30.8215040643,3.61924462915,2
1540,1.84875586924,2.60333989722,2
1541,1.85436523297,3.32186249207,2
1542,2.42732765481,3.78159962768,2
1543,1.83629336094,4.14971115266,2
1544,38.1922100663,3.35622338569,2
1545,38.1903464424,2.61391492088,2
1546,37.6561390408,2.16618585206,2
1547,38.2105869251,1.81030400879,2
1548,1.79882828642,1.82819829913,2
1549,2.39547194403,2.178609369,2
1550,3.13372066308,3.30063553135,2
1551,3.11564879105,4.12848419194,2
1552,2.91951049672,2.62724125716,2
1553,3.60783163296,2.97412582141,2
1554,4.8576111707,2.92559712751,2
1555,4.1806104527,3.02169517788,2
1556,38.2087928878,4.21542744465,2
1557,37.6524813797,3.82900082311,2
1558,36.9874874772,3.24298400233,2
1559,37.1266115862,2.63946280099,2
1560,36.4782005052,2.91265003917,2
1561,17.037037037,2.50550674429,2
1562,16.6666666667,1.89192696155,2
1563,15.9259259259,1.88649797226,2
1564,17.4074074074,2.9976817298,2
1565,16.6666666667,2.99302831041,2
1566,18.96834864,3.22726621283,2
1567,18.1481481481,3.17958097914,2
1568,15.5555555556,2.52709343981,2
1569,15.9259259259,3.17492755975,2
1570,15.1851851852,3.20116767466,2
1571,19.5239515314,3.12277177379,2
1572,20.0794597511,2.41824281559,2
1573,20.7407407407,2.83247690186,2
1574,20.0794597511,3.01976471734,2
1575,14.3209876543,3.12611551382,2
1576,13.5802469136,3.1034731815,2
1577,14.6913580247,3.77394963376,2
1578,12.9382716049,2.98136934557,2
1579,12.2222222222,1.88907305681,2
1580,12.5925925926,2.50427516802,2
1581,12.1975308642,2.97759562352,2
1582,14.9176954733,4.37354323298,2
1583,28.9202854284,2.51530046012,2
1584,30.8023563781,3.00657392714,2
1585,29.9817942649,2.9826117824,2
1586,29.2704003444,3.17435637033,2
1587,28.5610561432,3.17949666676,2
1588,31.9378851126,2.38349490548,2
1589,32.6170231736,2.82525858931,2
1590,31.9498919172,2.99984813699,2
1591,31.9690396034,3.61251883899,2
1592,31.2899015423,3.17075515517,2
1593,27.9343276235,3.02826637106,2
1594,27.1675881494,3.07300638812,2
1595,26.6732519685,3.20687566723,2
1596,26.0085168699,3.62716090973,2
1597,26.0127271804,3.03020603316,2
1598,25.3611029221,2.83977188188,2
1599,26.0258380207,2.41948663937,2
1600,34.6770579443,2.53125094848,2
1601,35.1277125009,3.15561925844,2
1602,34.3641602582,3.22550599005,2
1603,33.8092993994,3.1178250176,2
1604,33.2712678399,3.02137475045,2
1605,35.8898432916,2.98876772869,2
1606,21.5106760652,3.45149395184,2
1607,22.6330273202,2.81513015788,2
1608,23.3494392412,2.82847138403,2
1609,22.0049585705,2.97130275636,2
1610,21.235023246,2.95380760812,2
1611,24.0620434826,3.02172719939,2
1612,24.5307136567,3.47308141403,2
1613,24.8970292238,4.08888473447,2
1614,24.8793219077,2.99913706103,2
1615,25.6639649674,4.11389174812,2
1616,11.4814814815,1.89175102208,2
1617,11.1111111111,2.53325132118,2
1618,9.87654320988,3.13368091094,2
1619,9.13580246914,3.10576039458,2
1620,10.7407407407,3.2075014955,2
1621,10.2469135802,3.77518121004,2
1622,11.4814814815,3.17475162028,2
1623,8.49382716049,2.98281191953,2
1624,8.14814814815,2.50476647484,2
1625,7.75308641975,2.97741823069,2
1626,10.4732510288,4.3737484957,2
1627,7.03703703704,3.17439909297,2
1628,6.29087560326,3.16417219994,2
1629,5.54556388758,2.9671214974,2
1630,5.22713182297,2.43739463004,2
1631,19.6377953759,3.63675211489,1
1632,19.532022606,3.11951097217,1
1633,20.1933035956,3.53374505844,1
1634,19.735591743,4.15576667662,1
1635,19.0741214099,3.74450735555,1
1636,10.7407407407,1.9245008973,1
1637,10,1.9245008973,1
1638,10.3703703704,1.2830005982,1
1639,11.1111111111,1.2830005982,1
1640,9.62962962963,1.2830005982,1
1641,14.0740740741,1.2830005982,1
1642,14.4444444444,1.91816707646,1
1643,14.8148148148,1.27757160891,1
1644,15.1851851852,1.91273808717,1
1645,15.5555555556,1.27214261962,1
1646,10.3703703704,2.5660011964,1
1647,9.25925925926,1.89658038094,1
1648,8.88888888889,1.27834717881,1
1649,8.51851851852,1.89192696155,1
1650,8.14814814815,1.27369375941,1
1651,9.62962962963,2.53808068004,1
1652,8.88888888889,2.51016016368,1
1653,12.962962963,1.89284677886,1
1654,13.3333333333,1.28032263293,1
1655,12.5925925926,1.27764466765,1
1656,13.7037037037,1.89552474414,1
1657,13.3333333333,2.50804889007,1
1658,4.53917910609,2.39587026015,1
1659,4.16305910668,1.80578491369,1
1660,4.86821498043,1.81833337325,1
1661,14.0740740741,2.53069122239,1
1662,14.8148148148,2.55333355472,1
1663,4.49209498102,1.22824802679,1
1664,3.78693910727,1.21569956724,1
1665,5.19725085477,1.24079648635,1
1666,7.77777777778,1.8865332727,1
1667,11.4814814815,1.89175102208,1
1668,8.14814814815,2.50476647484,1
1669,12.2222222222,1.88907305681,1
1670,12.5925925926,2.50427516802,1
1671,15.9259259259,1.88649797226,1
1672,16.2962962963,1.27757160891,1
1673,16.6666666667,1.89192696155,1
1674,17.037037037,1.2830005982,1
1675,11.8518518519,1.28032263293,1
1676,6.66666666667,1.2830005982,1
1677,7.03703703704,1.8911866921,1
1678,7.40740740741,1.27834717881,1
1679,6.29087560326,1.88095979907,1
1680,5.55616769731,1.85985774314,1
1681,5.93195876072,1.26189854227,1
1682,11.1111111111,2.53325132118,1
1683,15.5555555556,2.52709343981,1
1684,33.3395452216,2.35495205014,1
1685,32.5988044808,2.35953276075,1
1686,32.9691748512,1.745952978,1
1687,5.22713182297,2.43739463004,1
1688,11.8518518519,2.50050144596,1
1689,7.40740740741,2.49937278599,1
1690,16.2962962963,2.5008533249,1
1691,3.96640028634,2.34830090368,1
1692,3.39362146659,2.30073154722,1
1693,3.59028028693,1.75821555723,1
1694,6.66124597363,2.48914589296,1
1695,36.6179678447,2.30828556295,1
1696,36.4146830145,1.77052778458,1
1697,37.1474952993,1.83500861401,1
1698,32.6058961547,1.24976693385,1
1699,32.2284341104,1.745952978,1
1700,31.8651554139,1.24976693385,1
1701,11.1111111111,0.6415002991,0.5
1702,10.3703703704,0.6415002991,0.5
1703,11.1111111111,0.6415002991,1.5
1704,10.3703703704,0.6415002991,1.5
1705,9.62962962963,0.6415002991,1.5
1706,9.62962962963,0.6415002991,0.5
1707,11.8518518519,0.638822333826,1.5
1708,11.8518518519,0.638822333826,0.5
1709,14.0740740741,0.6415002991,0.5
1710,13.3333333333,0.638822333826,0.5
1711,13.3333333333,0.638822333826,1.5
1712,14.0740740741,0.6415002991,1.5
1713,12.5925925926,0.638822333826,0.5
1714,12.5925925926,0.638822333826,1.5
1715,6.66666666667,0.6415002991,1.5
1716,7.40740740741,0.636846879707,0.5
1717,6.66666666667,0.6415002991,0.5
1718,8.88888888889,0.636846879707,1.5
1719,7.40740740741,0.636846879707,1.5
1720,8.88888888889,0.636846879707,0.5
1721,14.8148148148,0.636071309808,0.5
1722,14.8148148148,0.636071309808,1.5
1723,17.037037037,0.6415002991,0.5
1724,17.037037037,0.6415002991,1.5
1725,16.2962962963,0.636071309808,1.5
1726,16.2962962963,0.636071309808,0.5
1727,8.14814814815,0.636846879707,0.5
1728,8.14814814815,0.636846879707,1.5
1729,15.5555555556,0.636071309808,0.5
1730,15.5555555556,0.636071309808,1.5
1731,5.91508453985,2.47891899994,1
1732,5.93195876072,0.620398243175,0.5
1733,5.93195876072,0.620398243175,1.5
1734,33.3333333333,1.25508008184,1
1735,2.8695829139,1.85209965906,1
1736,5.19121801998,0.620398243175,0.5
1737,5.19121801998,0.620398243175,1.5
1738,31.1909324836,2.56204282478,1
1739,30.8519586527,1.90241572515,1
1740,31.561302854,1.92054252568,1
1741,38.7485215744,3.74265000722,1
1742,38.7466579506,3.00034154242,1
1743,39.3723971634,2.2540165388,0.5
1744,39.3742607872,2.99632500361,1.5
1745,39.3742607872,2.99632500361,0.5
1746,38.7447943267,2.25803307761,1
1747,39.3723971634,2.2540165388,1.5
1748,20.0794597511,2.41824281559,1
1749,20.7654753773,2.19410043855,1
1750,20.3703703704,1.75697779916,1
1751,22.2222222222,5.3584997009,1.5
1752,22.962962963,5.3584997009,1.5
1753,22.962962963,4.74491991816,1
1754,22.962962963,5.38642021726,0.5
1755,22.2222222222,5.38642021726,0.5
1756,33.3333333333,0.613579782743,1.5
1757,33.3333333333,0.6415002991,0.5
1758,34.0669456289,0.631967818181,0.5
1759,34.0669456289,1.24554760092,1
1760,36.9435672387,1.29809411054,1
1761,36.2107549538,1.2336132811,1
1762,39.3742607872,3.74632500361,0.5
1763,39.3742607872,3.74632500361,1.5
1764,17.4074074074,1.89658038094,1
1765,34.793184972,4.45945281714,1
1766,34.7834937219,5.07260381955,1
1767,34.131908553,4.86936698627,1
1768,35.8390632681,1.83901659555,1
1769,36.0423480983,2.37677437392,1
1770,1.25772157537,2.9714514222,1
1771,1.84875586924,2.60333989722,1
1772,1.25211221164,2.25292882735,1
1773,0.626056105818,2.25146441368,1.5
1774,0.626056105818,2.25146441368,0.5
1775,0.631665469553,2.96998700852,1.5
1776,31.1111111111,1.2830005982,1
1777,31.8651554139,0.608266634747,1.5
1778,32.6058961547,0.608266634747,1.5
1779,31.8518518519,0.6415002991,0.5
1780,32.5925925926,0.6415002991,0.5
1781,35.4276349832,4.35558944297,1
1782,35.4179437331,4.96874044539,1
1783,25.0910011565,2.29349888911,1
1784,25.6095443356,2.22191012508,1
1785,24.9885995111,1.77876602567,1
1786,31.9316732243,2.53412230842,1
1787,3.06624173424,1.30958366907,1
1788,35.1339647534,1.85494122495,1
1789,35.5056564391,1.2495379105,1
1790,34.8005579244,1.26469908813,1
1791,37.1272548166,2.6386195261,1
1792,30.4017669099,1.26487379767,1
1793,28.8888888889,0.6415002991,1.5
1794,28.1741310028,1.09560351167,1
1795,28.1741310028,0.454103212571,0.5
1796,27.4333902621,0.454103212571,0.5
1797,28.1481481481,0.6415002991,1.5
1798,11.4814814815,3.17475162028,1
1799,10.7407407407,3.2075014955,1
1800,34.4444444444,3.17543652124,1
1801,33.9937898878,2.55106821128,1
1802,34.7573421306,2.48118147966,1
1803,24.4452554051,5.36363909663,1.5
1804,23.7045146644,5.36363909663,1.5
1805,23.7045146644,4.75005931389,1
1806,23.7037037037,5.38642021726,0.5
1807,4.48606214623,0.607849783618,0.5
1808,4.48606214623,0.607849783618,1.5
1809,4.1806104527,3.02169517788,1
1810,3.60783163296,2.97412582141,1
1811,1.26333093911,3.68997401705,1
1812,1.85436523297,3.32186249207,1
1813,24.4444444444,5.3584997009,0.5
1814,24.4452554051,4.72213879753,1
1815,15.1851851852,3.20116767466,1
1816,0.631665469553,2.96998700852,0.5
1817,12.9382716049,2.98136934557,1
1818,17.037037037,2.50550674429,1
1819,18.1481481481,1.89658038094,1
1820,17.7777777778,1.2830005982,1
1821,8.49382716049,2.98281191953,1
1822,17.7777777778,0.6415002991,1.5
1823,25.0778903161,2.90421828291,1
1824,24.609220142,2.45286406827,1
1825,12.1975308642,2.97759562352,1
1826,12.5432098765,3.45468980107,1
1827,8.0987654321,3.45546367538,1
1828,7.75308641975,2.97741823069,1
1829,18.5185185185,1.2830005982,1
1830,18.96834864,1.94426561463,1
1831,19.7090893807,1.94426561463,1
1832,19.2592592593,1.2830005982,1
1833,7.03703703704,3.17439909297,1
1834,24.0571777186,2.55689202139,1
1835,24.5068184966,1.93813120482,1
1836,34.7913264872,3.82486121853,1
1837,34.1300500682,4.23477538767,1
1838,34.2364656285,3.71718024608,1
1839,27.4333902621,1.09560351167,1
1840,27.4074074074,0.6415002991,1.5
1841,19.4181787614,2.60553063107,1
1842,20.0794597511,3.01976471734,1
1843,15.9259259259,3.17492755975,1
1844,9.87654320988,3.13368091094,1
1845,20.7849541723,3.40887068049,1
1846,1.79882828642,1.82819829913,1
1847,2.91951049672,2.62724125716,1
1848,9.13580246914,3.10576039458,1
1849,14.3209876543,3.12611551382,1
1850,20.7849541723,2.80734877875,1
1851,6.29087560326,3.16417219994,1
1852,13.5802469136,3.1034731815,1
1853,26.79658094,1.19501696015,1
1854,26.4316083758,1.85847705638,1
1855,26.0881363731,1.18055012581,1
1856,3.79545086103,4.32255459061,1
1857,4.4872272735,4.8642830649,1
1858,3.76885992275,4.99758908561,1
1859,24.0803507824,4.26167275013,1
1860,24.7304292188,4.06208916854,1
1861,20.0265468539,1.25837924699,1
1862,2.42732765481,3.78159962768,1
1863,1.83629336094,4.14971115266,1
1864,35.4539908847,2.45289206343,1
1865,3.11564879105,4.12848419194,1
1866,3.08905785276,4.80351868694,1
1867,36.9863379099,0.681287469987,0.5
1868,36.2535256251,0.616806640552,1.5
1869,36.2535256251,0.616806640552,0.5
1870,33.5145155498,3.55495700152,1
1871,33.8895835857,3.06775554879,1
1872,6.66870761057,5.52974018459,0.5
1873,5.92796686983,5.52974018459,0.5
1874,6.67074855448,5.05948036919,1
1875,5.92796686983,5.52974018459,1.5
1876,6.66870761057,5.52974018459,1.5
1877,8.12345679012,4.08623153859,1
1878,7.38271604938,3.65244453766,1
1879,20.2910999627,4.05275962017,1
1880,19.8414591847,4.67152043674,1
1881,20.6482585985,4.69047000552,1
1882,37.6763795235,1.36257493997,1
1883,4.8576111707,2.92559712751,1
1884,18.5979782696,2.55784539738,1
1885,38.1922100663,3.35622338569,1
1886,38.1903464424,2.61391492088,1
1887,19.1799888516,4.26026111567,1
1888,3.74532140549,0.607849783618,0.5
1889,3.02462403246,0.701733885449,1.5
1890,3.74532140549,0.607849783618,1.5
1891,38.2105869251,1.81030400879,1
1892,12.5679012346,4.08584460144,1
1893,11.8271604938,3.65184579784,1
1894,22.2222222222,4.7169994018,1
1895,21.4814814815,5.3584997009,0.5
1896,18.502664437,4.44825306061,1
1897,17.7777777778,4.2830005982,1
1898,18.4868103555,5.04750432663,1
1899,17.7619236963,4.88225186421,1
1900,0.631665469553,3.71998700852,1.5
1901,0.631665469553,3.71998700852,0.5
1902,7.40944835131,5.52974018459,0.5
1903,7.40944835131,5.52974018459,1.5
1904,11.1111111111,5.56180467945,0.5
1905,11.8518518519,5.56180467945,0.5
1906,11.8518518519,5.56180467945,1.5
1907,11.1111111111,5.1236093589,1
1908,11.1111111111,5.56180467945,1.5
1909,16.2962962963,5.56180467945,0.5
1910,15.5555555556,5.56180467945,0.5
1911,15.5555555556,5.1236093589,1
1912,15.5555555556,5.56180467945,1.5
1913,16.2962962963,5.56180467945,1.5
1914,31.5963424904,4.4152623159,1
1915,31.9123843952,4.89623449179,1
1916,31.2352114553,4.70743144285,1
1917,30.9191695506,4.22645926696,1
1918,20.0265468539,0.616878947894,1.5
1919,20.7672875947,0.616878947894,1.5
1920,21.4814814815,0.6415002991,0.5
1921,20.7672875947,1.25837924699,1
1922,20.7407407407,0.6415002991,0.5
1923,20,0.6415002991,0.5
1924,27.0382245327,4.2604149728,1
1925,27.5325607136,4.12654569369,1
1926,27.1625582124,3.48958884471,1
1927,26.6682220315,3.62345812382,1
1928,33.4080999896,4.07255214311,1
1929,32.9764839903,3.45850673437,1
1930,26.6936726302,5.38864611029,1.5
1931,25.9529318895,5.38864611029,1.5
1932,26.6666666667,5.3584997009,0.5
1933,26.6936726302,4.74714581119,1
1934,27.4074074074,5.3584997009,0.5
1935,17.7777777778,2.51016016368,1
1936,25.9387937749,4.74481149789,1
1937,26.2833456773,4.2580806595,1
1938,25.1859961458,5.36363909663,1.5
1939,25.1718580313,4.71980448424,1
1940,25.9117878113,5.35616538761,0.5
1941,25.1710470706,5.35616538761,0.5
1942,21.2792366776,2.92867948501,1
1943,21.2597578826,2.31543114481,1
1944,17.7619236963,5.52375216331,0.5
1945,18.502664437,5.52375216331,0.5
1946,18.502664437,5.52375216331,1.5
1947,17.7619236963,5.52375216331,1.5
1948,30.3703703704,0.6415002991,1.5
1949,31.1111111111,0.6415002991,1.5
1950,31.1425076506,0.623373498566,0.5
1951,30.4017669099,0.623373498566,0.5
1952,38.2087928878,4.21542744465,1
1953,37.6524813797,3.82900082311,1
1954,35.5127848843,0.616806640552,1.5
1955,35.5127848843,0.616806640552,0.5
1956,16.6666666667,2.99302831041,1
1957,16.2962962963,3.66710254526,1
1958,17.037037037,3.48520329592,1
1959,19.2592592593,0.6415002991,1.5
1960,18.5185185185,0.6415002991,0.5
1961,17.7777777778,0.6415002991,0.5
1962,18.5185185185,0.6415002991,1.5
1963,19.2592592593,0.6415002991,0.5
1964,6.66870761057,4.45445288457,1
1965,7.40944835131,4.88823988549,1
1966,17.037037037,4.10110134886,1
1967,17.7777777778,3.66710254526,1
1968,36.0404551516,4.86130458593,1
1969,5.54556388758,2.9671214974,1
1970,5.17604323531,3.45532399486,1
1971,5.92135495099,3.6523746974,1
1972,34.8076863696,0.632731269949,1.5
1973,34.8076863696,0.631967818181,0.5
1974,23.7140352153,3.6458694297,1
1975,24.3641136517,3.44628584811,1
1976,22.7160493827,4.14931968726,1
1977,25.9176965912,1.73441734579,1
1978,25.2967517667,1.29127324638,1
1979,16.2962962963,4.2830005982,1
1980,29.6478221212,5.52724908334,1.5
1981,28.9070813804,5.52724908334,1.5
1982,28.9021321807,5.35454080715,0.5
1983,28.9203246723,4.88178989049,1
1984,29.6428729215,5.35454080715,0.5
1985,2.44539952684,2.95375096709,1
1986,21.5548894968,3.42636582873,1
1987,21.1421128081,4.04658106584,1
1988,3.73628181323,5.49879454281,0.5
1989,4.47702255397,5.49879454281,0.5
1990,4.47702255397,5.49879454281,1.5
1991,3.73628181323,5.49879454281,1.5
1992,11.8518518519,4.92030438035,1
1993,11.8518518519,4.2830005982,1
1994,11.1111111111,4.48630557675,1
1995,15.5555555556,4.48630557675,1
1996,16.2962962963,4.92030438035,1
1997,18.5185185185,3.8490017946,1
1998,27.4872287799,4.71696912823,1
1999,2.34554436121,1.4034677709,1
2000,37.6561390408,2.16618585206,1
2001,21.1111111111,1.75697779916,1
2002,21.561302854,1.28303087177,1
2003,34.8051235647,5.53808815242,1.5
2004,34.1535383958,5.33485131915,1.5
2005,34.793184972,5.53451566713,0.5
2006,19.1641347701,4.85951238168,1
2007,22.3748735961,3.5253145364,1
2008,21.9620969074,4.1455297735,1
2009,20.7275290061,5.35470978715,1.5
2010,19.9207295924,5.33576021837,1.5
2011,19.9207295924,5.33576021837,0.5
2012,34.4373159992,1.88323064118,1
2013,6.66666666667,3.84942539995,1
2014,23.7169154383,0.617369696498,0.5
2015,23.721916007,0.472733295921,1.5
2016,22.9943870008,1.09010299242,1
2017,22.9761746976,0.617369696498,0.5
2018,22.9811752662,0.472733295921,1.5
2019,5.93817158937,4.89522870668,1
2020,36.9863379099,0.681287469987,1.5
2021,25.6228208893,4.08141102544,1
2022,26.0076972435,3.44678848976,1
2023,5.19081892978,4.09315051952,1
2024,38.3162118686,4.82471157779,1
2025,38.9633595358,4.96121827351,1
2026,38.8559405551,4.35193414037,1
2027,20.7407407407,5.3584997009,0.5
2028,21.4682697469,4.71320948805,1
2029,21.561302854,0.641530572674,1.5
2030,22.2222222222,0.6415002991,0.5
2031,22.3020435947,0.641530572674,1.5
2032,28.2279695206,5.35846942733,1.5
2033,27.4872287799,5.35846942733,1.5
2034,28.1481481481,5.3584997009,0.5
2035,32.6372331857,5.37268510447,1.5
2036,31.896492445,5.37268510447,1.5
2037,31.8677438021,5.52354938731,0.5
2038,32.6084845428,5.52354938731,0.5
2039,27.4074074074,1.7169994018,1
2040,27.0424348432,2.38045949803,1
2041,26.2611685939,2.41234427637,1
2042,23.338799081,4.2565333544,1
2043,31.5804505402,3.81621382588,1
2044,31.896492445,4.29718600177,1
2045,30.5135010572,3.50161968289,1
2046,30.7225350056,3.01053229876,1
2047,30.1535178222,2.9215655343,1
2048,33.6187218519,3.038269664,1
2049,29.6296296296,1.2830005982,1
2050,29.6296296296,0.6415002991,0.5
2051,28.8888888889,0.6415002991,0.5
2052,29.6296296296,0.6415002991,1.5
2053,28.8888888889,1.2830005982,1
2054,1.17420299167,1.67704615737,1
2055,21.4682697469,5.35470978715,1.5
2056,2.39547194403,2.178609369,1
2057,11.1111111111,3.8490017946,1
2058,18.96834864,3.22726621283,1
2059,18.1481481481,3.17958097914,1
2060,15.5555555556,3.8490017946,1
2061,3.13372066308,3.30063553135,1
2062,17.4074074074,2.9976817298,1
2063,38.2900428759,1.23186921368,1
2064,38.8242502775,1.67959828249,1
2065,31.1905708622,5.33474633837,0.5
2066,1.75277477724,4.75414240045,1
2067,1.17981235541,4.29440526484,1
2068,28.2412128125,4.71301023447,1
2069,27.8598063656,4.10272952986,1
2070,25.5964334953,2.83262951887,1
2071,17.037037037,5.3584997009,1.5
2072,19.1799888516,5.33576021837,1.5
2073,4.49904251731,3.55142204523,1
2074,2.40925578278,4.60944828827,1
2075,14.6913580247,3.77394963376,1
2076,13.8271604938,3.69889747293,1
2077,10.2469135802,3.77518121004,1
2078,9.38271604938,3.70136062548,1
2079,27.9051382993,3.51230609532,1
2080,28.531866819,3.66353639102,1
2081,36.4788437357,2.91180676428,1
2082,35.9032239893,2.98029557526,1
2083,3.05647974324,5.30472414414,1.5
2084,24.7127219027,2.9723414951,1
2085,23.091285517,3.53865576256,1
2086,8.14814814815,5.3584997009,0.5
2087,30.1717235574,1.83553413283,1
2088,3.02462403246,0.701733885449,0.5
2089,32.6108112854,2.97588599225,1
2090,5.19538990472,5.36548852209,0.5
2091,13.1851851852,3.576793637,1
2092,13.2098765432,4.20794843737,1
2093,8.74074074074,3.57841215043,1
2094,31.561302854,3.20354312388,1
2095,37.6358985581,2.96979676415,1
2096,31.0010462214,3.66580091092,1
2097,31.2100801698,3.17471352678,1
2098,12.5925925926,5.3584997009,0.5
2099,33.4127976551,5.33485131915,1.5
2100,34.0524442312,5.53451566713,0.5
2101,1.09629377171,4.89883651262,1
2102,37.7270786507,0.681287469987,1.5
2103,37.7270786507,0.681287469987,0.5
2104,7.40740740741,4.28321240087,1
2105,8.14814814815,4.7169994018,1
2106,28.181751903,3.0044804808,1
2107,27.8091743173,2.33571948097,1
2108,27.5325607136,2.84354509549,1
2109,38.9037062283,1.10116348738,1
2110,10.4732510288,5.01105227785,1
2111,10.4732510288,4.3737484957,1
2112,14.9176954733,5.01084701513,1
2113,30.3703703704,5.3584997009,1.5
2114,29.6428729215,4.71304050805,1
2115,1.72091906646,1.25231562914,1
2116,1.09629377171,1.10116348738,1
2117,12.5925925926,4.7169994018,1
2118,17.037037037,4.7169994018,1
2119,3.82204179932,3.6475200956,1
2120,24.4444444444,0.6415002991,1.5
2121,23.7169154383,1.2588699956,1
2122,4.51381821178,4.18924856989,1
2123,5.20559462425,4.73097704418,1
2124,37.0040702988,4.10218806129,1
2125,36.8547596765,4.774754734,1
2126,36.1897657739,4.18873791322,1
2127,30.5317067923,4.13258768323,1
2128,39.4816797679,4.35560913675,0.5
2129,39.4816797679,4.35560913675,1.5
2130,22.3152553293,1.25890026917,1
2131,25.1813920768,3.42369570974,1
2132,30.4498301215,4.69324603927,1
2133,29.9547327736,4.13650150314,1
2134,9.73251028807,5.4492475984,1.5
2135,9.73251028807,5.4492475984,0.5
2136,9.8353909465,4.8984951968,1
2137,8.99176954733,4.8077472993,1
2138,8.88888888889,5.3584997009,1.5
2139,14.1769547325,5.44904233569,1.5
2140,14.1769547325,5.44904233569,0.5
2141,14.2798353909,4.89808467137,1
2142,13.4362139918,4.80754203659,1
2143,13.3333333333,5.3584997009,1.5
2144,24.0740740741,1.9245008973,1
2145,24.5237148521,1.30574008073,1
2146,30.6219153002,2.47307606032,1
2147,26.6724323421,3.02650324725,1
2148,32.240440915,3.64530680771,1
2149,28.9132732659,4.27381709563,1
2150,29.225133118,3.69727809073,1
2151,5.93613064546,4.29020122206,1
2152,32.6372331857,4.73118480538,1
2153,33.3333333333,5.3584997009,0.5
2154,2.28388329172,0.701733885449,0.5
2155,2.28388329172,0.701733885449,1.5
2156,39.4816797679,4.9769040833,1.5
2157,39.4816797679,4.9769040833,0.5
2158,8.88888888889,5.3584997009,0.5
2159,8.14814814815,5.3584997009,1.5
2160,13.3333333333,5.3584997009,0.5
2161,12.5925925926,5.3584997009,1.5
2162,29.9365270385,3.5055335028,1
2163,32.9811816558,4.07930561131,1
2164,33.4127976551,4.69335102005,1
2165,38.9815614402,5.48060913675,1.5
2166,38.3705686568,5.48060913675,1.5
2167,38.3705686568,5.48060913675,0.5
2168,38.9815614402,5.48060913675,0.5
2169,21.9120587311,2.40113330125,1
2170,21.6053936164,1.87830850542,1
2171,22.7272895266,2.87145559419,1
2172,23.3445734772,2.36363620603,1
2173,22.9874148415,1.69800530433,1
2174,31.1111111111,5.3584997009,1.5
2175,30.4498301215,5.33474633837,0.5
2176,25.9582220998,0.627033464754,1.5
2177,25.2644555928,0.66423978163,0.5
2178,26.0558401992,0.553516661055,0.5
2179,25.1851851852,0.6415002991,1.5
2180,24.5237148521,0.66423978163,0.5
2181,35.4276349832,5.43065229296,0.5
2182,36.9874874772,3.24298400233,1
2183,37.6690642013,4.68820488208,1
2184,14.0534979424,4.29849107215,1
2185,14.9176954733,4.37354323298,1
2186,9.60905349794,4.29992791114,1
2187,36.168375724,5.43065229296,1.5
2188,36.9826802488,5.34410244104,0.5
2189,36.168375724,5.43065229296,0.5
2190,28.8567387254,1.91286394242,1
2191,28.5177648945,2.5315840216,1
2192,28.549915058,1.90172067737,1
2193,23.7085694677,3.0308363744,1
2194,35.5723900298,3.67992519215,1
2195,29.2271090958,2.52644372516,1
2196,36.3345208205,3.51307366239,1
2197,17.037037037,5.3584997009,0.5
2198,8.76543209877,4.20918001364,1
2199,26.79658094,0.553516661055,0.5
2200,26.6989628405,0.627033464754,1.5
2201,29.801353187,2.44911391558,1
2202,29.2592592593,1.89658038094,1
2203,0.548146885855,1.67558174369,1.5
2204,21.8679679686,1.80585566761,1
2205,0.548146885855,4.32441825631,0.5
2206,28.8678798106,3.19063993181,1
2207,3.05647974324,5.30472414414,0.5
2208,29.5843624033,3.03308188408,1
2209,37.7234209895,5.34410244104,0.5
2210,36.9826802488,5.34410244104,1.5
2211,39.4518531141,1.67558174369,0.5
2212,0.548146885855,4.32441825631,1.5
2213,22.5401274808,2.24496070277,1
2214,35.4276349832,5.43065229296,1.5
2215,5.19538990472,5.36548852209,1.5
2216,1.65925799697,5.44941825631,0.5
2217,2.3157390025,5.30472414414,1.5
2218,1.65925799697,5.44941825631,1.5
2219,0.548146885855,1.67558174369,0.5
2220,1.65925799697,0.550581743689,0.5
2221,1.65925799697,0.550581743689,1.5
2222,34.0740740741,0.613579782743,1.5
2223,38.340742003,0.550581743689,1.5
2224,38.340742003,0.550581743689,0.5
2225,22.1877115503,2.89881964498,1
2226,39.4518531141,1.67558174369,1.5
2227,2.3157390025,5.30472414414,0.5
2228,14.9176954733,5.44904233569,0.5
2229,10.4732510288,5.4492475984,0.5
2230,0.548146885855,4.94571320286,0.5
2231,0.548146885855,4.94571320286,1.5
2232,0.548146885855,1.05428679714,1.5
2233,0.548146885855,1.05428679714,0.5
2234,39.4518531141,1.05428679714,1.5
2235,39.4518531141,1.05428679714,0.5
2236,1.04826521361,5.44941825631,0.5
2237,1.04826521361,5.44941825631,1.5
2238,1.04826521361,0.550581743689,0.5
2239,1.04826521361,0.550581743689,1.5
2240,38.9517347864,0.550581743689,1.5
2241,38.9517347864,0.550581743689,0.5
2242,37.7234209895,5.34410244104,1.5
2243,19.2434051777,5.52375216331,0.5
2244,14.9176954733,5.44904233569,1.5
2245,10.4732510288,5.4492475984,1.5
2246,39.4998816722,5.49629494655,1
2247,0.500118327754,0.50370505345,1
2248,0.500118327754,5.49629494655,1
2249,39.4998816722,0.50370505345,1
2250,32.9644771857,2.84215350286,1
2251,33.7037037037,1.86407915398,1
2252,28.1481481481,1.7169994018,1
2253,35.1410931986,3.14714710501,1
*ELEMENT,TYPE=C3D10,ELSET=SOLID
37,741,1234,1164,1188,1631,1571,1632,1633,1439,1574
38,639,674,741,1234,938,940,939,1634,1635,1631
39,694,1189,1139,693,1636,1288,1637,965,1639,1638
40,694,644,693,1139,964,792,965,1637,1640,1638
41,648,675,676,1143,801,988,987,1641,1643,1642
42,1143,675,676,1166,1643,988,1642,1297,1645,1644
43,1189,694,1139,1190,1636,1637,1288,1460,1646,1461
44,644,1191,1196,1139,1647,1464,1648,1640,1463,1285
45,700,644,1191,1196,789,1647,1649,1650,1648,1464
46,644,694,1191,1139,964,1651,1647,1640,1637,1463
47,695,700,644,1191,968,789,966,1652,1649,1647
48,695,644,694,1191,966,964,967,1652,1647,1651
49,677,706,648,1204,991,798,989,1653,1655,1654
50,1143,677,648,1204,1656,989,1641,1294,1653,1654
51,1204,1143,677,1168,1294,1656,1653,1488,1487,1657
52,648,676,677,1143,987,990,989,1641,1642,1656
53,714,1209,1136,1200,1658,1446,1659,1660,1445,1276
54,1143,676,677,1168,1642,990,1656,1487,1661,1657
55,676,1143,1166,1167,1642,1297,1644,1662,1485,1484
56,1139,694,1191,1190,1637,1651,1463,1461,1646,1462
57,704,1136,714,641,1663,1659,950,780,1664,949
58,1136,704,714,1200,1663,950,1659,1276,1665,1660
59,1168,1143,676,1167,1487,1642,1661,1486,1485,1662
60,1197,700,1191,1196,1666,1649,1624,1450,1650,1464
61,705,694,693,1189,1117,965,1118,1667,1636,1639
62,700,695,701,1191,968,1125,955,1649,1652,1668
63,677,705,706,1204,1090,1091,991,1653,1669,1655
64,677,705,1204,1168,1090,1669,1653,1657,1670,1488
65,672,676,675,1166,1079,988,1074,1671,1644,1645
66,675,670,672,1166,804,1072,1074,1645,1672,1671
67,1161,672,670,1166,1673,1072,1674,1300,1671,1672
68,1189,693,705,1204,1639,1118,1667,1291,1675,1669
69,693,706,705,1204,795,1091,1118,1675,1655,1669
70,642,700,701,1137,786,955,954,1676,1678,1677
71,1137,700,1197,1196,1678,1666,1451,1282,1650,1450
72,704,642,1198,1200,783,1679,1680,1665,1681,1454
73,705,694,1189,1190,1117,1636,1667,1682,1646,1460
74,1137,1198,642,1200,1453,1679,1676,1279,1454,1681
75,1167,1166,676,1163,1484,1644,1662,1568,1563,1683
76,667,1227,666,665,1684,1685,1059,1060,1686,1030
77,1198,1209,714,1200,1630,1658,1687,1454,1445,1660
78,1190,1189,705,1203,1460,1667,1682,1617,1616,1688
79,700,1197,1191,701,1666,1624,1649,955,1689,1668
80,1203,1204,705,1168,1579,1669,1688,1580,1488,1670
81,672,676,1166,1163,1079,1644,1671,1690,1683,1563
82,1166,1161,672,1163,1300,1673,1671,1563,1562,1690
83,1204,705,1189,1203,1669,1667,1291,1579,1688,1616
84,1197,701,700,1137,1689,955,1666,1451,1677,1678
85,745,714,1241,1136,953,1691,1692,1693,1659,1447
86,1198,714,704,1200,1687,950,1680,1454,1660,1665
87,1198,642,701,1137,1679,954,1694,1453,1676,1677
88,1240,1208,1138,744,1459,1342,1457,1695,1697,1696
89,665,1181,1227,655,1698,1528,1686,837,1700,1699
90,315,693,328,1189,1701,1702,368,1703,1639,1704
91,693,1139,328,1189,1638,1705,1702,1639,1288,1704
92,644,693,1139,328,792,1638,1640,1706,1702,1705
93,714,1209,1241,1136,1658,1449,1691,1659,1446,1447
94,1189,315,693,1204,1703,1701,1639,1291,1707,1675
95,706,693,315,1204,795,1701,1708,1655,1675,1707
96,314,648,706,1204,1709,798,1710,1711,1654,1655
97,648,314,1143,1204,1709,1712,1641,1654,1711,1294
98,317,314,706,1204,374,1710,1713,1714,1711,1655
99,317,706,315,1204,1713,1708,371,1714,1655,1707
100,1137,642,700,326,1676,786,1678,1715,1717,1716
101,1139,1196,644,328,1285,1648,1640,1705,1718,1706
102,1196,1137,700,326,1282,1678,1650,1719,1715,1716
103,700,644,1196,328,789,1648,1650,1720,1706,1718
104,675,648,314,1143,801,1709,1721,1643,1641,1712
105,314,675,1143,1166,1721,1643,1712,1722,1645,1297
106,1161,670,318,1166,1674,1723,1724,1300,1672,1725
107,670,675,318,1166,804,1726,1723,1672,1645,1725
108,328,1196,700,329,1718,1650,1720,365,1728,1727
109,326,700,1196,329,1716,1650,1719,362,1727,1728
110,675,314,312,1166,1721,377,1729,1645,1722,1730
111,675,312,318,1166,1729,380,1726,1645,1730,1725
112,702,704,642,1198,958,783,956,1731,1680,1679
113,704,642,1200,326,783,1681,1665,1732,1717,1733
114,1227,1150,1181,665,1527,1333,1528,1686,1734,1698
115,642,1137,1200,326,1676,1279,1681,1717,1715,1733
116,714,745,641,1136,953,952,949,1659,1693,1664
117,745,1241,1206,1136,1692,1448,1735,1693,1447,1273
118,324,704,1200,326,1736,1665,1737,359,1732,1733
119,708,668,1173,655,1033,1738,1739,834,1031,1740
120,658,663,1159,286,770,1741,1742,1743,1745,1744
121,1159,1154,658,286,1266,1746,1742,1744,1747,1743
122,1213,673,718,707,1748,1085,1749,1750,1001,994
123,701,1198,1137,1197,1694,1453,1677,1689,1452,1451
124,1135,482,478,640,1751,555,1752,1753,1755,1754
125,665,1150,321,687,1734,1756,1757,840,1759,1758
126,713,1138,744,643,1760,1696,963,846,1761,962
127,663,287,1159,286,1762,1763,1741,1745,305,1744
128,671,672,670,1161,1073,1072,997,1764,1673,1674
129,1180,1140,1229,735,1466,1412,1465,1765,1767,1766
130,1138,744,688,1240,1696,961,1768,1457,1695,1769
131,1156,1153,659,1155,1541,1770,1771,1540,1259,1772
132,704,702,714,1198,958,1131,950,1680,1731,1687
133,642,1198,701,702,1679,1694,954,956,1731,957
134,1155,1153,659,261,1259,1770,1772,1773,1775,1774
135,1181,1142,1173,655,1330,1481,1483,1700,1776,1740
136,334,1181,321,655,1777,1778,413,1779,1700,1780
137,665,321,1181,655,1757,1778,1698,837,1780,1700
138,735,1229,1180,656,1766,1465,1765,919,1782,1781
139,1238,742,684,652,1783,1012,1784,1785,1011,1009
140,1227,1173,666,655,1588,1786,1685,1699,1740,1029
141,1206,641,745,1136,1787,952,1735,1273,1664,1693
142,1177,688,643,687,1788,960,1789,1790,959,843
143,1208,1240,1160,744,1459,1559,1546,1697,1695,1791
144,708,1173,1142,655,1739,1481,1792,834,1740,1776
145,321,1181,1150,665,1778,1333,1756,1757,1698,1734
146,333,1171,730,327,1793,1794,1795,404,1797,1796
147,694,705,1193,1190,1117,1798,1799,1646,1682,1620
148,1180,1179,1178,667,1601,1600,1602,1800,1802,1801
149,688,1138,1177,643,1768,1339,1788,960,1761,1789
150,478,489,1186,640,558,1803,1804,1754,1806,1805
151,641,704,1136,324,780,1663,1664,1807,1736,1808
152,1200,1136,704,324,1276,1663,1665,1737,1808,1736
153,745,714,1158,1241,953,1809,1810,1692,1691,1553
154,657,659,660,1153,763,1039,1038,1811,1770,1812
155,489,1186,640,709,1803,1805,1806,1813,1814,895
156,1167,676,1169,1163,1662,1815,1570,1568,1683,1569
157,657,659,1153,261,763,1770,1811,1816,1774,1775
158,705,677,720,1168,1090,1089,1092,1670,1657,1817
159,1162,672,1161,1163,1818,1673,1497,1561,1690,1562
160,1161,670,671,1145,1674,997,1764,1303,1820,1819
161,729,701,695,1191,1126,1125,1124,1821,1668,1652
162,1161,318,670,1145,1724,1723,1674,1303,1822,1820
163,1187,1238,1224,742,1598,1513,1614,1823,1783,1824
164,705,1215,1168,720,1825,1578,1670,1092,1826,1817
165,701,729,1222,1191,1126,1827,1828,1668,1821,1623
166,1164,1145,650,707,1498,1829,1830,1831,1832,810
167,1198,701,1199,1197,1694,1833,1628,1452,1689,1627
168,699,742,1224,652,1015,1824,1834,1014,1011,1835
169,1180,1235,1140,689,1468,1467,1466,1836,1838,1837
170,1186,1135,478,640,1391,1752,1804,1805,1753,1754
171,744,1138,688,643,1696,1768,961,962,1761,960
172,1190,705,1193,1203,1682,1798,1620,1617,1688,1622
173,1171,1151,730,327,1324,1839,1794,1797,1840,1796
174,673,741,1164,1188,1082,1632,1841,1842,1633,1574
175,676,672,678,1163,1079,1081,1080,1683,1690,1843
176,1209,1158,714,1241,1555,1809,1658,1449,1553,1691
177,694,1193,1192,1190,1799,1621,1844,1646,1620,1618
178,673,741,1188,692,1082,1633,1842,1083,943,1845
179,659,1156,1155,1206,1771,1540,1772,1846,1549,1548
180,1241,1156,745,1206,1552,1847,1692,1448,1549,1735
181,696,695,694,1191,1119,967,1120,1848,1652,1651
182,676,1169,1170,1167,1815,1577,1849,1662,1570,1575
183,692,1213,673,718,1850,1748,1083,1084,1749,1085
184,702,701,703,1198,957,1129,1128,1731,1694,1851
185,679,677,676,1168,1086,990,1087,1852,1657,1661
186,1151,1202,1175,725,1321,1533,1532,1853,1855,1854
187,662,1210,651,715,1856,1857,1002,1003,1858,856
188,724,709,1186,685,948,1814,1859,1108,1109,1860
189,1145,1164,1205,707,1498,1500,1306,1832,1831,1861
190,660,1153,1157,657,1812,1543,1862,1038,1811,1863
191,1227,666,665,655,1685,1030,1686,1699,1029,837
192,1173,1227,1181,655,1588,1528,1483,1740,1699,1700
193,1179,1138,1177,688,1455,1339,1456,1864,1768,1788
194,650,673,1164,707,1000,1841,1830,810,1001,1831
195,1191,694,1192,1190,1651,1844,1619,1462,1646,1618
196,1157,662,715,1210,1865,1003,1866,1349,1856,1858
197,713,313,1138,643,1867,1868,1760,846,1869,1761
198,1235,732,689,667,1870,974,1838,1871,1063,1067
199,734,488,487,1228,1872,522,1873,1874,1876,1875
200,1215,705,1168,1203,1825,1670,1578,1581,1688,1580
201,1168,676,1170,1167,1661,1849,1576,1486,1662,1575
202,1222,1148,729,1199,1516,1877,1827,1518,1519,1878
203,701,1222,1197,1191,1828,1625,1689,1668,1623,1624
204,1188,639,1134,1182,1879,1880,1437,1438,1881,1385
205,744,1208,1138,713,1697,1342,1696,963,1882,1760
206,741,639,1188,692,939,1879,1633,943,942,1845
207,714,1211,1209,1198,1883,1554,1658,1687,1629,1630
208,1222,729,701,1199,1827,1126,1828,1518,1878,1833
209,1145,650,671,1164,1829,998,1819,1498,1830,1884
210,663,1160,658,1159,1885,1886,770,1741,1544,1742
211,1159,1160,658,1154,1544,1886,1742,1266,1545,1746
212,674,639,1134,1234,938,1880,1887,1635,1634,1436
213,322,641,1206,1136,1888,1787,1889,1890,1664,1273
214,1160,1154,1208,658,1545,1547,1546,1886,1746,1891
215,720,1132,1193,1215,1892,1425,1893,1826,1420,1424
216,1135,482,640,690,1751,1755,1753,1894,1895,892
217,1164,1213,1205,707,1572,1494,1500,1831,1750,1861
218,1138,1179,1240,688,1455,1458,1457,1768,1864,1769
219,1214,674,1133,719,1896,1897,1379,1898,932,1899
220,1153,262,657,261,1900,1901,1811,1775,280,1816
221,492,488,734,1228,525,1872,1902,1903,1876,1874
222,479,477,727,1220,534,1904,1905,1906,1908,1907
223,723,480,483,1217,1909,543,1910,1911,1913,1912
224,731,1236,1194,647,1914,1538,1915,910,1917,1916
225,1193,705,720,1215,1798,1092,1893,1424,1825,1826
226,1136,322,641,324,1890,1888,1664,1808,356,1807
227,668,666,1173,655,1032,1786,1738,1031,1029,1740
228,1213,673,1164,1188,1748,1841,1572,1573,1842,1574
229,320,319,1205,649,389,1918,1919,1920,1922,1921
230,707,1205,319,649,1861,1918,1923,813,1921,1922
231,1188,1213,673,692,1573,1748,1842,1845,1850,1083
232,1237,1223,646,682,1478,1924,1925,1926,1927,979
233,1235,1195,1140,732,1471,1470,1467,1870,1929,1928
234,496,490,1201,646,564,1930,1931,1932,1934,1933
235,672,1162,1161,671,1818,1497,1673,1073,1935,1764
236,710,1201,1223,646,1936,1476,1937,901,1933,1924
237,1186,489,496,710,1803,561,1938,1939,1941,1940
238,692,1239,1213,718,1942,1495,1850,1084,1943,1749
239,474,480,719,1214,546,1944,1945,1946,1947,1898
240,1213,1164,673,707,1572,1841,1748,1750,1831,1001
241,334,335,1142,708,410,1948,1949,1950,1951,1792
242,1162,1145,671,1164,1496,1819,1935,1499,1498,1884
243,673,671,650,1164,999,998,1000,1841,1884,1830
244,712,1159,1160,663,1952,1544,1953,1055,1741,1885
245,489,1186,709,710,1803,1814,1813,1941,1939,898
246,670,650,671,1145,807,998,997,1820,1829,1819
247,313,330,1138,643,419,1954,1868,1869,1955,1761
248,672,721,678,1216,1075,936,1081,1956,1958,1957
249,1145,1205,319,707,1306,1918,1959,1832,1861,1923
250,701,1222,1199,1197,1828,1518,1833,1689,1625,1627
251,318,311,650,1145,383,1960,1961,1822,1962,1829
252,311,650,1145,319,1960,1829,1962,386,1963,1959
253,319,650,1145,707,1963,1829,1959,1923,810,1832
254,650,670,318,1145,807,1723,1961,1829,1820,1822
255,703,653,734,1228,1020,862,1008,1964,1965,1874
256,1133,721,1165,1216,1966,1967,1428,1429,1958,1430
257,745,1158,1156,1241,1810,1550,1847,1692,1553,1552
258,1229,1149,1180,656,1415,1522,1465,1782,1968,1781
259,1216,678,672,1163,1957,1081,1956,1565,1843,1690
260,702,703,716,1211,1128,1007,1130,1969,1971,1970
261,1177,643,330,687,1789,1955,1972,1790,843,1973
262,724,1186,1184,685,1859,1444,1974,1108,1860,1975
263,1215,1193,705,1203,1424,1798,1825,1581,1622,1688
264,714,1211,1158,1209,1883,1503,1809,1658,1554,1555
265,690,640,1135,691,892,1753,1894,945,944,1976
266,684,1202,1238,652,1977,1511,1784,1009,1978,1785
267,1133,678,721,1216,1979,936,1966,1429,1957,1958
268,495,498,1226,680,570,1980,1981,1982,1984,1983
269,1153,659,660,1156,1770,1039,1812,1541,1771,1985
270,1183,1188,1182,692,1606,1438,1440,1986,1845,1987
271,487,485,715,1210,519,1988,1989,1990,1991,1858
272,1220,727,637,1193,1907,871,1992,1426,1994,1993
273,678,723,1217,1133,937,1911,1995,1979,1996,1376
274,643,1177,330,1138,1789,1972,1955,1761,1339,1954
275,674,1134,1165,1234,1887,1434,1997,1635,1436,1435
276,1211,702,703,1198,1969,1128,1971,1629,1731,1851
277,1237,1223,1141,646,1478,1477,1474,1925,1924,1998
278,745,711,641,1206,951,777,952,1735,1999,1787
279,744,1160,1208,713,1791,1546,1697,963,2000,1882
280,671,1161,1145,1162,1764,1303,1819,1935,1497,1496
281,1213,1144,1205,649,1493,1309,1494,2001,2002,1921
282,493,1229,1140,735,2003,1412,2004,2005,1766,1767
283,1214,674,719,1134,1896,932,1898,1382,1887,2006
284,1211,702,714,716,1969,1131,1883,1970,1130,1053
285,1183,1182,1135,691,1440,1388,1441,2007,2008,1976
286,1182,639,1134,481,1881,1880,1385,2009,2011,2010
287,1201,1141,1223,646,1397,1477,1476,1933,1998,1924
288,1177,1178,1179,667,1524,1600,1456,2012,1801,1802
289,1199,703,701,1198,2013,1129,1833,1628,1851,1694
290,698,325,1219,316,2014,2015,2016,2017,395,2018
291,734,651,703,1228,859,1006,1008,1874,2019,1964
292,313,1138,1208,713,1868,1342,2020,1867,1760,1882
293,710,1223,1187,682,1937,1596,2021,980,1927,2022
294,1188,1183,1239,692,1606,1609,1610,1845,1986,1942
295,1186,1201,1187,710,1394,1615,1613,1939,1936,2021
296,1153,660,1157,1156,1812,1862,1543,1541,1985,1542
297,651,716,703,1211,1004,1007,1006,2023,1970,1971
298,702,1211,714,1198,1969,1883,1131,1731,1629,1687
299,1232,712,738,663,2024,923,2025,2026,1055,771
300,481,1182,639,690,2009,1881,2011,2027,2028,889
301,658,1208,1160,713,1891,1546,1886,1044,1882,2000
302,649,1144,320,316,2002,2029,1920,2030,2031,392
303,490,495,1141,646,567,2032,2033,1934,2034,1998
304,497,484,1194,731,576,2035,2036,2037,2038,1915
305,683,1151,1175,725,2039,1532,2040,1104,1853,1854
306,684,1175,1202,725,2041,1533,1977,1010,1854,1855
307,1135,640,724,691,1753,946,2042,1976,944,947
308,731,1194,1236,669,1915,1538,1914,970,2044,2043
309,1225,740,668,743,2045,1069,2046,2047,1071,1070
310,732,1235,1178,667,1870,1603,2048,1063,1871,1801
311,335,1142,654,333,1948,2049,2050,407,2052,2051
312,654,1142,1171,333,2049,1327,2053,2051,2052,1793
313,1206,659,1231,1155,1846,2054,1270,1548,1772,1256
314,1182,481,482,690,2009,552,2055,2028,2027,1895
315,659,711,660,1206,1047,1046,1039,1846,1999,2056
316,712,1232,1159,663,2024,1267,1952,1055,2026,1741
317,694,705,697,1193,1117,1123,1122,1799,1798,2057
318,671,673,674,1164,999,1078,1077,1884,1841,2058
319,1162,671,1165,1164,1935,2059,1567,1499,1884,1566
320,1169,676,678,1163,1815,1080,2060,1569,1683,1843
321,1157,660,662,1156,1862,1049,1865,1542,1985,2061
322,710,496,1201,646,1940,1931,1936,901,1932,1933
323,482,1135,1182,690,1751,1388,2055,1895,1894,2028
324,721,1165,1216,1162,1967,1430,1958,2062,1567,1564
325,1234,1165,674,1164,1435,1997,1635,1571,1566,2058
326,658,1154,1208,739,1746,1547,1891,767,2064,2063
327,1156,659,660,1206,1771,1039,1985,1549,1846,2056
328,1194,497,731,647,2036,2037,1915,1916,2065,910
329,736,657,1157,1153,764,1863,2066,2067,1811,1543
330,1201,1186,496,710,1394,1938,1931,1936,1939,1940
331,1141,646,680,681,1998,904,2068,2069,977,976
332,1195,1235,1178,732,1471,1603,1604,1929,1870,2048
333,1201,1223,1187,710,1476,1596,1615,1936,1937,2021
334,1216,672,721,1162,1956,1075,1958,1564,1818,2062
335,1175,1238,1187,684,1599,1598,1597,2041,1784,2070
336,1214,480,719,1133,1947,1944,1898,1379,2071,1899
337,719,474,1214,1134,1945,1946,1898,2006,2072,1382
338,662,716,651,1211,1005,1004,1002,2073,1970,2023
339,647,731,1236,669,910,1914,1917,981,970,2043
340,661,657,660,1157,1040,1038,1041,2074,1863,1862
341,1169,678,676,1170,2060,1080,1815,1577,2075,1849
342,678,679,676,1170,1088,1087,1080,2075,2076,1849
343,1135,1186,1184,724,1391,1444,1443,2042,1859,1974
344,697,696,694,1193,1121,1120,1122,2057,2077,1799
345,1193,696,694,1192,2077,1120,1799,1621,2078,1844
346,654,1171,730,333,2053,1794,828,2051,1793,1795
347,716,662,714,1211,1005,1052,1053,1970,2073,1883
348,1141,1176,1237,681,1473,1475,1474,2069,2080,2079
349,744,1212,688,1240,2081,2082,961,1695,1560,1769
350,690,1135,1182,691,1894,1388,2028,945,1976,2008
351,1162,1216,672,1163,1564,1956,1818,1561,1565,1690
352,1157,715,485,1210,1866,1988,2083,1349,1858,1991
353,1224,685,742,699,2084,1105,1824,1834,1106,1015
354,724,1184,1135,691,1974,1443,2042,947,2085,1976
355,646,1141,1237,681,1998,1474,1925,977,2069,2079
356,734,653,492,1228,862,2086,1902,1874,1965,1903
357,654,743,1142,708,1026,2087,2049,831,1027,1792
358,322,641,711,1206,1888,777,2088,1889,1787,1999
359,1195,1227,1173,666,1589,1588,1590,2089,1685,1786
360,1210,651,715,487,1857,856,1858,1990,2090,1989
361,735,1180,1140,689,1765,1466,1767,975,1836,1837
362,320,1205,1144,649,1919,1309,2029,1920,1921,2002
363,1239,1213,1188,692,1495,1573,1610,1942,1850,1845
364,660,662,661,1157,1049,1048,1041,1862,1865,2074
365,745,660,711,1206,1051,1046,951,1735,2056,1999
366,679,1215,1132,720,2091,1420,2092,925,1826,1892
367,1141,1201,490,646,1397,1930,2033,1998,1933,1934
368,1222,729,1148,1192,1827,1877,1516,1517,2093,1515
369,666,1173,669,668,1786,2094,1065,1032,1738,1064
370,1160,744,664,713,1791,1057,2095,2000,963,1045
371,660,745,1156,1206,1051,1847,1985,2056,1735,1549
372,669,1236,740,668,2043,2096,982,1064,2097,1069
373,479,727,637,1220,1905,871,2098,1906,1907,1992
374,723,480,1217,1133,1909,1913,1911,1996,2071,1376
375,1140,484,493,735,2099,579,2004,1767,2100,2005
376,1192,696,694,1191,2078,1120,1844,1619,1848,1651
377,1230,736,1157,1153,2101,2066,1346,1260,2067,1543
378,331,313,1208,713,422,2020,2102,2103,1867,1882
379,1142,335,654,708,1948,2050,2049,1792,1951,831
380,1170,679,676,1168,2076,1087,1849,1576,1852,1661
381,1165,671,674,1164,2059,1077,1997,1566,1884,2058
382,1223,710,646,682,1937,901,1924,1927,980,979
383,679,720,677,1168,925,1089,1086,1852,1817,1657
384,696,729,695,1191,1018,1124,1119,1848,1821,1652
385,703,729,1148,1199,1021,1877,2104,2013,1878,1519
386,703,729,653,1148,1021,1019,1020,2104,1877,2105
387,1174,1237,681,683,1593,2079,2106,2107,2108,1095
388,720,679,1215,1168,925,2091,1826,1817,1852,1578
389,1192,1222,729,1191,1517,1827,2093,1619,1623,1821
390,1233,1208,1154,739,1343,1547,1263,2109,2063,2064
391,1220,728,727,1193,2110,868,1907,1426,2111,1994
392,662,715,661,1157,1003,853,1048,1865,1866,2074
393,723,726,678,1217,877,1093,937,1911,2112,1995
394,498,1152,1226,680,2113,1403,1980,1984,2114,1983
395,729,703,701,1199,1021,1129,1126,1878,2013,1833
396,711,1231,659,737,2115,2054,1047,774,2116,760
397,681,1237,646,682,2079,1925,977,978,1926,979
398,1132,637,720,1193,2117,926,1892,1425,1993,1893
399,1160,663,658,664,1885,770,1886,2095,1043,1042
400,719,638,674,1133,883,931,932,1899,2118,1897
401,674,1214,1133,1165,1896,1379,1897,1997,1427,1428
402,664,658,1160,713,1042,1886,2095,1045,1044,2000
403,1199,1211,703,1198,1505,1971,2013,1628,1629,1851
404,1158,1157,662,1156,1551,1865,2119,1550,1542,2061
405,646,495,1141,680,2034,2032,1998,904,1982,2068
406,1219,1147,325,698,1315,2120,2015,2016,2121,2014
407,721,674,638,1133,933,931,934,1966,1897,2118
408,721,674,1133,1165,933,1897,1966,1967,1997,1428
409,1210,662,651,1158,1856,1002,1857,1501,2119,2122
410,1158,651,1210,1146,2122,1857,1501,1502,2123,1352
411,487,651,734,1228,2090,859,1873,1875,2019,1874
412,1228,703,653,1148,1964,1020,1965,1358,2104,2105
413,1148,1228,703,1199,1358,1964,2104,1519,1507,2013
414,712,1212,1149,656,2124,1521,2125,922,2126,1968
415,637,697,720,1193,928,929,926,1993,2057,1893
416,1236,1225,1152,740,1539,1535,1537,2096,2045,2127
417,1180,735,656,689,1765,919,1781,1836,975,1034
418,674,639,719,1134,938,886,932,1887,1880,2006
419,1212,656,1180,1149,2126,1781,1520,1521,1968,1522
420,1132,1220,637,1193,1367,1992,2117,1425,1426,1993
421,723,678,638,1133,937,935,880,1996,1979,2118
422,738,287,1232,663,2128,2129,2025,771,1762,2026
423,1216,1169,678,1163,1431,2060,1957,1565,1569,1843
424,1144,649,698,316,2002,816,2130,2031,2030,2017
425,685,1187,1224,742,2131,1614,2084,1105,1823,1824
426,1165,721,671,1162,1967,1076,2059,1567,2062,1935
427,638,678,721,1133,935,936,934,2118,1979,1966
428,684,683,1175,725,1099,2040,2041,1010,1104,1854
429,705,720,697,1193,1092,929,1123,1798,1893,2057
430,680,647,1152,686,907,2132,2114,985,984,2133
431,1210,1157,662,1158,1349,1865,1856,1501,1551,2119
432,663,1160,712,664,1885,1953,1055,1043,2095,1054
433,697,637,727,1193,928,871,930,2057,1993,1994
434,682,681,1237,683,978,2079,1926,1096,1095,2108
435,1133,1217,678,1169,1376,1995,1979,1432,1433,2060
436,745,714,662,1158,953,1052,1050,1810,1809,2119
437,495,1226,1141,680,1981,1400,2032,1982,1983,2068
438,1221,491,728,1148,2134,2135,2136,1361,2138,2137
439,1218,476,726,1132,2139,2140,2141,1370,2143,2142
440,1237,1174,1175,683,1593,1531,1594,2108,2107,2040
441,287,1159,1232,663,1763,1267,2129,1762,1741,2026
442,1147,699,652,698,2144,1014,2145,2121,1013,819
443,739,1208,658,713,2063,1891,767,847,1882,1044
444,1173,1225,668,743,1584,2046,1738,2146,2047,1070
445,678,1133,1169,1216,1979,1432,2060,1957,1429,1431
446,682,1175,1187,684,2147,1597,2022,1100,2041,2070
447,682,1237,1175,683,1926,1594,2147,1096,2108,2040
448,669,1195,1173,666,2148,1590,2094,1065,2089,1786
449,1173,1236,1195,669,1592,1591,1590,2094,2043,2148
450,672,671,721,1162,1073,1076,1075,1818,1935,2062
451,680,1152,1176,686,2114,1536,2149,985,2133,2150
452,1211,703,651,1199,1971,1006,2023,1505,2013,2151
453,731,484,1194,645,2038,2035,1915,913,2153,2152
454,322,711,323,1206,2088,2154,353,1889,1999,2155
455,1232,288,287,738,2156,306,2129,2025,2157,2128
456,491,492,653,1148,528,2086,2158,2138,2159,2105
457,637,476,479,1132,2160,537,2098,2117,2143,2161
458,653,728,491,1148,865,2135,2158,2105,2137,2138
459,1225,686,740,743,2162,986,2045,2047,1110,1071
460,637,726,476,1132,874,2140,2160,2117,2142,2143
461,1176,1141,680,681,1473,2068,2149,2080,2069,976
462,1219,1144,698,316,1312,2130,2016,2018,2031,2017
463,1194,1140,1195,645,1409,1470,1469,2152,2164,2163
464,1212,1240,1179,688,1560,1458,1605,2082,1769,1864
465,1228,651,703,1199,2019,1006,1964,1507,2151,2013
466,660,745,662,1156,1051,1050,1049,1985,1847,2061
467,494,500,1232,738,586,2165,2166,2167,2168,2025
468,718,722,1239,649,996,2169,1943,995,992,2170
469,1183,1184,1185,691,1442,1608,1607,2007,2085,2171
470,1202,1147,1238,652,1318,1512,1511,1978,2145,1785
471,699,1147,1185,698,2144,1508,2172,1013,2121,2173
472,498,497,1152,647,573,2174,2113,2175,2065,2132
473,1239,692,722,718,1942,1114,2169,1943,1084,996
474,652,1202,332,725,1978,2176,2177,822,1855,2178
475,1236,1152,1194,647,1537,1406,1538,1917,2132,1916
476,332,325,1147,652,398,2120,2179,2177,2180,2145
477,735,493,1229,656,2005,2003,1766,919,2181,1782
478,1160,1212,712,664,1558,2124,1953,2095,2182,1054
479,1159,712,1160,1207,1952,1953,1544,1556,2183,1557
480,1173,1236,669,668,1592,2043,2094,1738,2097,1064
481,679,1218,678,726,2184,2185,1088,927,2141,1093
482,1193,1221,728,1192,1626,2136,2111,1621,1514,2186
483,1175,1187,1223,682,1597,1596,1595,2147,2022,1927
484,651,1146,1211,1199,2123,1504,2023,2151,1506,1505
485,659,1206,1231,711,1846,1270,2054,1047,1999,2115
486,744,1160,1212,1240,1791,1558,2081,1695,1559,1560
487,1134,1214,674,1165,1382,1896,1887,1434,1427,1997
488,712,1149,475,656,2125,2187,2188,922,1968,2189
489,733,1171,1174,654,2190,1529,2191,1025,2053,2192
490,674,721,671,1165,933,1076,1077,1997,1967,2059
491,645,1195,1194,669,2163,1469,2152,969,2148,2044
492,645,735,1140,689,916,1767,2164,973,975,1837
493,1147,1202,332,652,1318,2176,2179,2145,1978,2177
494,651,1228,1146,1199,2019,1355,2123,2151,1507,1506
495,691,724,1184,699,947,1974,2085,1115,1107,2193
496,497,1194,1152,647,2036,1406,2174,2065,1916,2132
497,689,656,1180,717,1034,1781,1836,1036,1035,2194
498,1174,1172,1171,733,1583,1480,1529,2191,2195,2190
499,1147,1219,1185,698,1315,1489,1508,2121,2016,2173
500,1149,1207,1212,712,1418,1523,1521,2125,2183,2124
501,1169,1218,678,1170,1582,2185,2060,1577,1423,2075
502,1218,679,678,1170,2184,1088,2185,1423,2076,2075
503,696,697,728,1193,1121,1127,1017,2077,2057,2111
504,1193,728,696,1192,2111,1017,2077,1621,2186,2078
505,1184,724,685,699,1974,1108,1975,2193,1107,1106
506,1225,1176,1152,686,1534,1536,1535,2162,2150,2133
507,683,733,1174,654,1024,2191,2107,1022,1025,2192
508,661,736,657,1157,850,764,1040,2074,2066,1863
509,652,684,1202,725,1009,1977,1978,822,1010,1855
510,1152,498,647,680,2113,2175,2132,2114,1984,907
511,1218,726,679,1132,2141,927,2184,1370,2142,2092
512,1187,1184,1186,685,1612,1444,1613,2131,1975,1860
513,728,1221,1148,1192,2136,1361,2137,2186,1514,1515
514,1160,1212,1207,712,1558,1523,1557,1953,2124,2183
515,740,647,1236,669,983,1917,2096,982,981,2043
516,1211,651,662,1158,2023,1002,2073,1503,2122,2119
517,1211,1146,651,1158,1504,2123,2023,1503,1502,2122
518,691,1184,1185,699,2085,1608,2171,1115,2193,2172
519,647,1236,1152,740,1917,1537,2132,983,2096,2127
520,1220,1221,728,1193,1364,2136,2110,1426,1626,2111
521,678,1218,1217,726,2185,1373,1995,1093,2141,2112
522,1176,1226,1152,680,1472,1403,1536,2149,1983,2114
523,717,712,1212,664,1037,2124,2196,1056,1054,2182
524,726,637,679,1132,874,924,927,2142,2117,2092
525,637,479,1220,1132,2098,1906,1992,2117,2161,1367
526,480,723,638,1133,1909,880,2197,2071,1996,2118
527,728,653,696,1148,865,1016,1017,2137,2105,2198
528,653,492,1228,1148,2086,1903,1965,2105,2159,1358
529,652,325,1147,698,2180,2120,2145,819,2014,2121
530,656,712,1212,717,922,2124,2126,1035,1037,2196
531,1147,1185,1224,699,1508,1510,1509,2144,2172,1834
532,1151,1202,725,327,1321,1855,1853,1840,2200,2199
533,1211,662,714,1158,2073,1052,1883,1503,2119,1809
534,1173,1142,1172,743,1481,1479,1482,2146,2087,2201
535,656,1212,1180,717,2126,1520,1781,1035,2196,2194
536,1223,1237,1175,682,1478,1594,1595,1927,1926,2147
537,1184,1183,1135,691,1442,1441,1443,2085,2007,1976
538,733,1172,1171,654,2195,1480,2190,1025,2202,2053
539,659,1231,1155,261,2054,1256,1772,1774,2203,1773
540,638,719,480,1133,883,1944,2197,2118,1899,2071
541,725,730,1151,327,825,1839,1853,2199,1796,1840
542,679,1218,1132,1170,2184,1370,2092,2076,1423,1422
543,1202,1238,1175,684,1511,1599,1533,1977,1784,2041
544,1148,696,728,1192,2198,1017,2137,1515,2078,2186
545,1158,745,1156,662,1810,1847,1550,2119,1050,2061
546,1194,731,645,669,1915,913,2152,2044,970,969
547,697,727,728,1193,930,868,1127,2057,1994,2111
548,725,1202,332,327,1855,2176,2178,2199,2200,401
549,1218,678,1217,1169,2185,1995,1373,1582,2060,1433
550,665,70,321,655,835,412,1757,837,833,1780
551,334,321,70,655,413,412,408,1779,1780,833
552,333,120,1171,327,460,1323,1793,404,459,1797
553,328,55,693,315,363,790,1702,368,367,1701
554,108,315,328,1189,436,368,435,1287,1703,1704
555,108,328,1139,1189,435,1705,1283,1287,1704,1288
556,693,644,55,328,792,788,790,1702,1706,363
557,649,722,1144,698,992,2204,2002,816,993,2130
558,657,736,262,1153,764,2205,1901,1811,2067,1900
559,1219,1144,1185,698,1312,1490,1489,2016,2130,2173
560,681,1176,1174,733,2080,1587,2106,1097,2206,2191
561,314,317,110,1204,374,439,440,1711,1714,1289
562,57,314,706,317,373,1710,794,369,374,1713
563,56,706,315,317,793,1708,366,370,1713,371
564,109,317,315,1204,438,371,437,1290,1714,1707
565,1189,109,315,1204,1286,437,1703,1291,1290,1707
566,706,693,56,315,795,791,793,1708,1701,366
567,57,314,648,706,373,1709,796,794,1710,798
568,1143,314,110,1204,1712,440,1293,1294,1711,1289
569,720,679,637,1132,925,924,926,1892,2092,2117
570,729,696,653,1148,1018,1016,1019,1877,2198,2105
571,328,107,1196,329,434,1280,1718,365,433,1728
572,328,700,54,329,1720,785,364,365,1727,360
573,53,700,326,329,784,1716,357,361,1727,362
574,1196,106,326,329,1281,431,1719,1728,432,362
575,685,710,1187,682,1103,2021,2131,1102,980,2022
576,1196,1139,107,328,1285,1284,1280,1718,1705,434
577,644,700,54,328,789,785,787,1706,1720,364
578,53,700,642,326,784,786,782,357,1716,1717
579,1137,1196,106,326,1282,1281,1277,1715,1719,431
580,111,312,314,1166,442,377,441,1296,1730,1722
581,312,58,314,675,376,372,377,1729,799,1721
582,112,318,312,1166,444,380,443,1295,1725,1730
583,312,318,59,675,380,379,375,1729,1726,800
584,1207,1232,1159,712,1419,1267,1556,2183,2024,1952
585,648,314,58,675,1709,372,797,801,1721,799
586,1143,111,314,1166,1292,441,1712,1297,1296,1722
587,318,112,1161,1166,444,1299,1724,1725,1295,1300
588,675,318,59,670,1726,379,800,804,1723,802
589,1140,1194,484,645,1409,2035,2099,2164,2152,2153
590,485,661,715,1157,2207,853,1988,2083,2074,1866
591,1172,1176,686,733,1586,2150,2208,2195,2206,1098
592,712,494,1232,738,2209,2166,2024,923,2167,2025
593,1215,679,1132,1170,2091,2092,1420,1421,2076,1422
594,1225,1173,1172,743,1584,1482,1585,2047,2146,2201
595,729,696,1148,1192,1018,2198,1877,2093,2078,1515
596,699,1224,1147,652,1834,1509,2144,1014,1835,2145
597,1187,685,682,684,2131,1102,2022,2070,1101,1100
598,1207,1149,475,712,1418,2187,2210,2183,2125,2188
599,1154,658,286,739,1746,1743,1747,2064,767,2211
600,649,320,63,316,1920,387,812,2030,392,391
601,62,319,320,649,384,389,388,811,1922,1920
602,319,62,707,649,384,809,1923,1922,811,813
603,1151,683,730,725,2039,1023,1839,1853,1104,825
604,1176,1141,1226,680,1473,1400,1472,2149,2068,1983
605,1151,1171,120,327,1324,1323,1319,1840,1797,459
606,1140,484,735,645,2099,2100,1767,2164,2153,916
607,732,1195,645,669,1929,2163,971,972,2148,969
608,733,743,1172,654,1028,2201,2195,1025,1026,2202
609,685,1224,1184,699,2084,1611,1975,1106,1834,2193
610,1176,681,686,733,2080,1094,2150,2206,1097,1098
611,482,222,1135,478,613,1386,1751,555,616,1752
612,321,330,71,687,416,415,411,1758,1973,838
613,490,496,172,646,564,560,562,1934,1932,900
614,495,490,173,646,567,563,565,2034,1934,899
615,665,321,71,687,1757,411,836,840,1758,838
616,729,696,1192,1191,1018,2078,2093,1821,1848,1619
617,1170,1215,679,1168,1421,2091,2076,1576,1578,1852
618,658,33,663,286,766,768,770,1743,300,1745
619,43,1154,1159,286,1261,1266,1265,308,1747,1744
620,1230,262,736,1153,2212,2205,2101,1260,1900,2067
621,722,1185,1144,698,2213,1490,2204,993,2173,2130
622,1149,1229,493,656,1415,2003,2214,1968,1782,2181
623,1228,487,651,1146,1875,2090,2019,1355,2215,2123
624,1200,105,324,326,1274,429,1737,1733,430,359
625,324,52,704,326,354,779,1736,359,358,1732
626,33,287,663,286,304,1762,768,300,305,1745
627,287,43,1159,286,309,1265,1763,305,308,1744
628,169,478,482,640,553,555,551,891,1754,1755
629,489,478,170,640,558,554,556,1806,1754,890
630,1210,651,487,1146,1857,2090,1990,1352,2123,2215
631,486,736,1157,1230,2216,2066,2217,2218,2101,1346
632,105,1200,1137,326,1274,1279,1278,430,1733,1715
633,642,704,52,326,783,779,781,1717,1732,358
634,640,170,489,709,890,556,1806,895,894,1813
635,659,1231,261,737,2054,2203,1774,760,2116,2219
636,711,737,323,1231,774,2220,2154,2115,2116,2221
637,1142,335,121,333,1948,462,1326,2052,407,461
638,121,1171,1142,333,1322,1327,1326,461,1793,2052
639,330,321,124,1150,416,467,468,2222,1756,1331
640,1208,1233,331,739,1343,2223,2102,2063,2109,2224
641,1185,1183,691,722,1607,2007,2171,2213,2225,1113
642,489,1186,223,478,1803,1389,618,558,1804,615
643,1176,1172,1174,733,1586,1583,1587,2206,2195,2191
644,1183,1185,1239,722,1607,1491,1609,2225,2213,2169
645,286,1233,1154,739,2226,1263,1747,2211,2109,2064
646,1144,1239,1185,722,1492,1491,1490,2204,2169,2213
647,645,1140,1195,732,2164,1470,2163,971,1928,1929
648,489,224,1186,496,617,1390,1803,561,620,1938
649,686,1225,1172,743,2162,1585,2208,1110,2047,2201
650,485,486,661,1157,516,2227,2207,2083,2217,2074
651,1212,744,688,717,2081,961,2082,2196,1058,1111
652,722,691,1185,699,1113,2171,2213,1116,1115,2172
653,311,60,318,650,382,378,383,1960,805,1961
654,311,318,113,1145,383,445,446,1962,1822,1302
655,650,311,61,319,1960,381,806,1963,386,385
656,1145,114,311,319,1301,447,1962,1959,448,386
657,319,61,650,707,385,806,1963,1923,808,810
658,670,318,60,650,1723,378,803,807,1961,805
659,1161,113,318,1145,1298,445,1724,1303,1302,1822
660,1186,1135,223,478,1391,1387,1389,1804,1752,615
661,1174,1237,1176,681,1593,1475,1587,2106,2079,2080
662,722,1144,1239,649,2204,1492,2169,992,2002,2170
663,726,723,483,1217,877,1910,2228,2112,1911,1912
664,477,728,727,1220,2229,868,1904,1908,2110,1907
665,739,331,1208,713,2224,2102,2063,847,2103,1882
666,710,172,496,646,896,560,1940,901,900,1932
667,171,496,489,710,559,561,557,897,1940,1941
668,1155,23,1153,261,1255,1257,1259,1773,282,1775
669,13,659,657,261,758,763,762,276,1774,1816
670,1184,1187,1224,685,1612,1614,1611,1975,2131,2084
671,698,649,63,316,816,812,814,2017,2030,391
672,709,171,489,710,893,557,1813,898,897,1941
673,1231,323,711,1206,2221,2154,2115,1270,2155,1999
674,321,123,1181,334,466,1328,1778,413,465,1777
675,264,262,736,1230,281,2205,2230,2231,2212,2101
676,263,1231,737,261,2232,2116,2233,277,2203,2219
677,1233,286,289,739,2226,302,2234,2109,2211,2235
678,736,486,499,1230,2216,513,2236,2101,2218,2237
679,336,323,737,1231,350,2220,2238,2239,2221,2116
680,1233,337,331,739,2240,423,2223,2109,2241,2224
681,222,1135,1182,482,1386,1388,1384,613,1751,2055
682,646,173,495,680,899,565,2034,904,903,1982
683,23,262,1153,261,285,1900,1257,282,280,1775
684,262,13,657,261,278,762,1901,280,276,1816
685,1181,123,321,1150,1328,466,1778,1333,1332,1756
686,1160,744,1212,664,1791,2081,1558,2095,1057,2182
687,475,494,1207,712,585,2242,2210,2188,2209,2183
688,1177,330,124,1150,1972,468,1335,1336,2222,1331
689,733,1174,681,683,2191,2106,1097,1024,2107,1095
690,1201,1186,224,496,1394,1390,1392,1931,1938,620
691,1175,1174,1151,683,1531,1530,1532,2040,2107,2039
692,736,661,486,1157,850,2227,2216,2066,2074,2217
693,743,1172,686,733,2201,2208,1110,1028,2195,1098
694,114,1145,1205,319,1301,1306,1305,448,1959,1918
695,325,1147,118,332,2120,1313,455,398,2179,456
696,653,160,492,491,860,524,2086,2158,526,528
697,491,492,1148,213,528,2159,2138,598,595,1357
698,476,163,637,479,535,869,2160,537,533,2098
699,216,479,476,1132,601,537,604,1366,2161,2143
700,640,482,169,690,1755,551,891,892,1895,887
701,654,68,335,333,827,406,2050,2051,402,407
702,497,1152,228,498,2174,1402,628,573,2113,625
703,331,73,313,713,421,417,422,2103,844,1867
704,313,1208,126,331,2020,1341,471,422,2102,472
705,332,1202,119,327,2176,1316,457,401,2200,458
706,69,335,334,708,405,410,409,830,1951,1950
707,1138,125,330,313,1338,469,1954,1868,470,419
708,72,330,313,643,414,419,418,841,1955,1869
709,744,1212,664,717,2081,2182,1057,1058,2196,1056
710,104,322,1136,324,427,1890,1271,428,356,1808
711,51,641,322,324,776,1888,351,355,1807,356
712,719,167,474,481,881,545,1945,2243,547,549
713,1176,1225,1172,686,1534,1585,1586,2150,2162,2208
714,708,334,69,655,1950,409,830,834,1779,832
715,641,51,704,324,776,778,780,1807,355,1736
716,1136,1200,104,324,1276,1275,1271,1808,1737,428
717,72,330,643,687,414,1955,841,839,1973,843
718,168,482,481,690,550,552,548,888,1895,2027
719,1217,483,726,1218,1912,2228,2112,1373,2244,2141
720,728,477,1221,1220,2229,2245,2136,2110,1908,1364
721,126,1138,1208,313,1337,1342,1341,471,1868,2020
722,713,73,313,643,844,417,1867,846,842,1869
723,323,322,1206,103,353,1889,2155,425,426,1268
724,323,50,711,322,348,773,2154,353,352,2088
725,1194,1195,1236,669,1469,1591,1538,2044,2148,2043
726,1202,1151,119,327,1321,1320,1316,2200,1840,458
727,1147,1202,118,332,1318,1317,1313,2179,2176,456
728,481,221,1182,482,611,1383,2009,552,614,2055
729,498,495,174,680,570,566,568,1984,1982,902
730,654,335,68,708,2050,406,827,831,1951,829
731,641,711,50,322,777,773,775,1888,2088,352
732,1136,1206,322,103,1273,1889,1890,1272,1268,426
733,1232,1207,494,712,1419,2242,2166,2024,2183,2209
734,669,732,1195,666,972,1929,2148,1065,1062,2089
735,1194,1152,228,497,1406,1402,1404,2036,2174,628
736,681,680,1176,686,976,2149,2080,1094,985,2150
737,683,1175,682,684,2040,2147,1096,1099,2041,1100
738,1205,115,319,320,1304,449,1918,1919,450,389
739,64,325,698,316,394,2014,815,390,395,2017
740,1149,493,475,656,2214,582,2187,1968,2181,2189
741,488,158,734,487,520,858,1872,522,518,1873
742,488,487,1228,211,522,1875,1876,594,591,1353
743,490,1201,225,496,1930,1393,622,564,1931,619
744,65,325,332,652,393,398,397,818,2180,2177
745,1177,125,330,1138,1334,469,1972,1339,1338,1954
746,1228,492,488,212,1903,525,1876,1354,596,593
747,488,734,159,492,1872,857,521,525,1902,523
748,1224,1185,1184,699,1510,1608,1611,1834,2172,2193
749,483,476,726,1218,540,2140,2228,2244,2139,2141
750,477,491,728,1221,531,2135,2229,2245,2134,2136
751,167,719,639,481,881,886,885,547,2243,2011
752,168,481,639,690,548,2011,884,888,2027,889
753,661,715,156,485,853,852,848,2207,1988,514
754,485,1157,1210,209,2083,1349,1991,590,1345,1347
755,699,1185,722,698,2172,2213,1116,1013,2173,993
756,1157,485,486,209,2083,516,2217,1345,590,587
757,486,661,156,485,2227,848,512,516,2207,514
758,221,1182,1134,481,1383,1385,1381,611,2009,2010
759,174,647,498,680,906,2175,568,902,907,1984
760,484,1194,229,497,2035,1405,630,576,2036,627
761,1141,226,495,490,1396,624,2032,2033,621,567
762,320,1144,116,316,2029,1307,451,392,2031,452
763,160,653,728,491,860,865,864,526,2158,2135
764,1148,1221,491,213,1361,2134,2138,1357,1359,598
765,637,726,163,476,874,873,869,2160,2140,535
766,1218,216,476,1132,1368,604,2139,1370,1366,2143
767,731,497,484,176,2037,576,2038,908,572,574
768,480,474,219,1214,546,610,607,1947,1946,1377
769,480,719,166,474,1944,882,542,546,1945,544
770,477,479,215,1220,534,602,599,1908,1906,1363
771,727,162,477,479,866,530,1904,1905,532,534
772,165,723,480,483,875,1909,541,539,1910,543
773,218,483,480,1217,605,543,608,1372,1912,1913
774,226,1226,1141,495,1398,1400,1396,624,1981,2032
775,1144,1219,116,316,1312,1311,1307,2031,2018,452
776,498,1226,227,495,1980,1399,626,570,1981,623
777,325,117,1219,316,454,1310,2015,395,453,2018
778,715,157,485,487,851,515,1988,1989,517,519
779,1210,487,485,210,1990,519,1991,1348,592,589
780,484,493,735,177,579,2005,2100,575,577,915
781,64,325,652,698,394,2180,817,815,2014,819
782,1207,232,494,475,1416,636,2242,2210,633,585
783,115,1205,1144,320,1304,1309,1308,450,1919,2029
784,712,475,494,179,2188,585,2209,921,581,583
785,1141,1201,225,490,1397,1393,1395,2033,1930,622
786,333,730,67,327,1795,824,403,404,1796,399
787,229,1140,1194,484,1407,1409,1405,630,2099,2035
788,652,332,65,725,2177,397,818,822,2178,820
789,734,653,159,492,862,861,857,1902,2086,523
790,1148,492,1228,212,2159,1903,1358,1356,596,1354
791,1146,1228,487,211,1355,1875,2215,1351,1353,591
792,158,651,734,487,854,859,858,518,2090,1873
793,1220,479,215,1132,1906,602,1363,1367,2161,1365
794,162,727,637,479,866,871,870,532,1905,2098
795,1217,480,218,1133,1913,608,1372,1376,2071,1374
796,165,723,638,480,875,880,879,541,1909,2197
797,645,731,484,176,913,2038,2153,912,908,574
798,638,719,166,480,883,882,878,2197,1944,542
799,219,480,1214,1133,607,1947,1377,1375,2071,1379
800,1219,1147,117,325,1315,1314,1310,2015,2120,454
801,1226,227,1152,498,1399,1401,1403,1980,626,2113
802,232,1207,1149,475,1416,1418,1414,633,2210,2187
803,500,288,1232,738,2246,2156,2165,2168,2157,2025
804,645,484,735,177,2153,2100,916,911,575,915
805,475,712,656,179,2188,922,2189,581,921,917
806,654,730,67,333,828,824,826,2051,1795,403
807,157,715,651,487,851,856,855,517,1989,2090
808,1210,1146,487,210,1352,2215,1990,1348,1350,592
809,737,336,1231,263,2238,2239,2116,2233,2247,2232
810,736,499,264,1230,2236,2248,2230,2101,2237,2231
811,289,337,1233,739,2249,2240,2234,2235,2241,2109
812,231,1149,1229,493,1413,1415,1411,631,2214,2003
813,493,231,1149,475,631,1413,2214,582,634,2187
814,656,493,475,178,2181,582,2189,918,578,580
815,725,332,66,327,2178,396,821,2199,401,400
816,476,726,164,483,2140,872,536,540,2228,538
817,476,483,217,1218,540,606,603,2139,2244,1369
818,491,728,161,477,2135,863,527,531,2229,529
819,477,491,1221,214,531,2134,2245,600,597,1360
820,288,44,1232,287,299,1252,2156,306,310,2129
821,287,288,34,738,306,296,303,2128,2157,755
822,656,735,493,178,919,2005,2181,918,914,578
823,726,723,164,483,877,876,872,2228,1910,538
824,1217,217,483,1218,1371,606,1912,1373,1369,2244
825,727,161,728,477,867,863,868,1904,529,2229
826,214,1221,477,1220,1360,2245,600,1362,1364,1908
827,66,730,725,327,823,825,821,400,1796,2199
828,34,287,738,663,303,2128,755,769,1762,771
829,44,1159,1232,287,1264,1267,1252,310,1763,2129
830,288,8,39,500,298,41,297,2246,509,507
831,288,39,7,500,297,40,295,2246,507,506
832,1232,233,500,494,1253,510,2165,2166,635,586
833,738,494,500,180,2167,586,2168,757,584,508
834,263,22,1231,261,269,1243,2232,277,283,2203
835,737,12,263,261,746,267,2233,2219,275,277
836,286,42,1233,289,307,1248,2226,302,294,2234
837,289,286,32,739,302,301,292,2235,2211,753
838,262,736,14,264,2205,750,279,281,2230,270
839,264,24,262,1230,274,284,281,2231,1245,2212
840,29,5,337,289,30,344,343,291,290,2249
841,6,29,337,289,31,343,346,293,291,2249
842,336,9,2,263,339,11,341,2247,265,268
843,4,19,499,264,21,501,504,273,272,2248
844,499,19,3,264,501,20,502,2248,272,271
845,336,1,9,263,338,10,339,2247,266,265
846,12,737,659,261,746,760,759,275,2219,1774
847,22,1155,1231,261,1254,1256,1243,283,1773,2203
848,1154,42,1233,286,1262,1248,1263,1747,307,2226
849,286,658,32,739,1743,765,301,2211,767,753
850,1230,24,262,1153,1245,284,2212,1260,1258,1900
851,14,657,736,262,761,764,750,279,1901,2205
852,331,337,74,739,423,345,420,2224,2241,754
853,337,127,1233,331,347,1250,2240,423,473,2223
854,323,737,49,336,2220,748,349,350,2238,340
855,102,323,336,1231,424,350,342,1244,2221,2239
856,486,499,1230,208,513,2237,2218,588,505,1247
857,155,736,486,499,751,2216,511,503,2236,513
858,233,1232,1207,494,1253,1419,1417,635,2166,2242
859,738,712,494,180,923,2209,2167,757,920,584
860,1208,1233,127,331,1343,1250,1340,2102,2223,473
861,74,331,739,713,420,2224,754,845,2103,847
862,737,49,711,323,748,772,774,2220,349,2154
863,1231,102,323,1206,1244,424,2221,1270,1269,2155
864,1230,1157,486,208,1346,2217,2218,1247,1344,588
865,155,736,661,486,751,850,849,511,2216,2227
866,288,1232,8,500,2156,1251,298,2246,2165,509
867,500,7,288,738,506,295,2246,2168,756,2157
868,5,337,289,739,344,2249,290,752,2241,2235
869,3,736,499,264,749,2236,502,271,2230,2248
870,264,499,4,1230,2248,504,273,2231,2237,1246
871,1231,336,2,263,2239,341,1242,2232,2247,268
872,336,737,1,263,2238,747,338,2247,2233,266
873,337,1233,6,289,2240,1249,346,2249,2234,293
874,121,120,1171,333,147,1323,1322,461,460,1793
875,70,69,334,655,96,409,408,833,832,1779
876,71,70,321,665,97,412,411,836,835,1757
877,319,62,61,707,384,88,385,1923,809,808
878,55,56,693,315,82,791,790,367,366,1701
879,108,109,315,1189,135,437,436,1287,1286,1703
880,52,53,642,326,79,782,781,358,357,1717
881,1137,106,105,326,1277,132,1278,1715,431,430
882,1139,107,328,108,1284,434,1705,1283,134,435
883,54,55,644,328,81,788,787,364,363,1706
884,314,58,57,648,372,84,373,1709,797,796
885,110,111,314,1143,137,441,440,1293,1292,1712
886,112,113,318,1161,139,445,444,1299,1298,1724
887,318,60,59,670,378,86,379,1723,803,802
888,170,171,489,709,197,557,556,894,893,1813
889,109,110,317,1204,136,439,438,1290,1289,1714
890,706,56,57,317,793,83,794,1713,370,369
891,53,54,700,329,80,785,784,361,360,1727
892,1196,107,106,329,1280,133,1281,1728,433,432
893,111,112,312,1166,138,443,442,1296,1295,1730
894,312,59,58,675,375,85,376,1729,800,799
895,63,62,320,649,89,388,387,812,811,1920
896,330,72,71,687,414,98,415,1973,839,838
897,1151,120,119,327,1319,146,1320,1840,459,458
898,222,223,1135,478,249,1387,1386,616,615,1752
899,172,173,490,646,199,563,562,900,899,1934
900,127,126,1208,331,153,1341,1340,473,472,2102
901,331,74,73,713,420,100,421,2103,845,844
902,13,12,659,261,16,759,758,276,275,1774
903,1155,22,23,261,1254,26,1255,1773,283,282
904,51,52,704,324,78,779,778,355,354,1736
905,1200,105,104,324,1274,131,1275,1737,429,428
906,122,335,121,1142,463,462,148,1325,1948,1326
907,49,50,711,323,76,773,772,349,348,2154
908,1206,102,323,103,1269,424,2155,1268,129,425
909,657,14,13,262,761,17,762,1901,279,278
910,24,23,262,1153,27,285,284,1258,1257,1900
911,1154,43,42,286,1261,46,1262,1747,308,307
912,658,32,33,286,765,36,766,1743,301,300
913,44,43,1159,287,47,1265,1264,310,309,1763
914,287,34,33,663,303,37,304,1762,769,768
915,1186,223,224,489,1389,250,1390,1803,618,617
916,229,230,1140,484,256,1408,1407,630,629,2099
917,171,172,496,710,198,560,559,897,896,1940
918,175,647,498,174,905,2175,569,201,906,568
919,311,61,60,650,381,87,382,1960,806,805
920,113,114,311,1145,140,447,446,1302,1301,1962
921,221,1134,220,481,1381,1380,247,611,2010,612
922,478,169,170,640,553,196,554,1754,891,890
923,126,125,1138,313,152,1338,1337,471,470,1868
924,313,73,72,643,417,99,418,1869,842,841
925,123,124,321,1150,150,467,466,1332,1331,1756
926,119,118,1202,332,145,1317,1316,457,456,2176
927,65,64,325,652,91,394,393,818,817,2180
928,156,155,661,486,182,849,848,512,511,2227
929,208,1157,486,209,1344,2217,588,235,1345,587
930,69,68,335,708,95,406,405,830,829,1951
931,639,167,481,168,885,547,2011,884,194,548
932,124,125,330,1177,151,469,468,1335,1334,1972
933,123,122,1181,334,149,1329,1328,465,464,1777
934,641,50,51,322,775,77,776,1888,352,351
935,103,322,1136,104,426,1890,1272,130,427,1271
936,226,1141,225,490,1396,1395,252,621,2033,622
937,116,115,1144,320,142,1308,1307,451,450,2029
938,1147,118,117,325,1313,144,1314,2120,455,454
939,160,159,653,492,186,861,860,524,523,2086
940,492,1148,213,212,2159,1357,595,596,1356,239
941,637,163,162,479,869,189,870,2098,533,532
942,216,215,479,1132,242,602,601,1366,1365,2161
943,177,645,484,176,911,2153,575,203,912,574
944,480,219,218,1133,607,245,608,2071,1375,1374
945,166,165,638,480,192,879,878,542,541,2197
946,654,67,68,333,826,94,827,2051,403,402
947,289,32,5,739,292,35,290,2235,753,752
948,1231,2,22,263,1242,25,1243,2232,268,269
949,737,12,1,263,746,15,747,2233,267,266
950,1233,42,6,289,1248,45,1249,2234,294,293
951,3,14,736,264,18,750,749,271,270,2230
952,264,4,24,1230,273,28,274,2231,1246,1245
953,227,228,1152,498,254,1402,1401,626,625,2113
954,221,222,1182,482,248,1384,1383,614,613,2055
955,173,174,495,680,200,566,565,903,902,1982
956,7,34,288,738,38,296,295,756,755,2157
957,8,44,1232,288,48,1252,1251,298,299,2156
958,482,168,169,690,550,195,551,1895,888,887
959,228,229,1194,497,255,1405,1404,628,627,2036
960,114,1205,115,319,1305,1304,141,448,1918,449
961,210,1146,487,211,1350,2215,592,237,1351,591
962,158,157,651,487,184,855,854,518,517,2090
963,232,233,1207,494,259,1417,1416,636,635,2242
964,1201,224,225,496,1392,251,1393,1931,620,619
965,180,712,494,179,920,2209,584,206,921,583
966,1232,233,8,500,1253,260,1251,2165,510,509
967,738,500,7,180,2168,506,756,757,508,207
968,337,5,74,739,344,101,345,2241,752,754
969,1233,6,127,337,1249,154,1250,2240,346,347
970,63,64,698,316,90,815,814,391,390,2017
971,1,49,737,336,75,748,747,338,340,2238
972,336,2,102,1231,341,128,342,2239,1242,1244
973,231,232,1149,475,258,1414,1413,634,633,2187
974,1230,499,4,208,2237,504,1246,1247,505,234
975,736,155,3,499,751,181,749,2236,503,502
976,66,65,332,725,92,397,396,821,820,2178
977,178,475,656,179,580,2189,918,205,581,917
978,726,164,163,476,872,190,873,2140,536,535
979,216,476,217,1218,604,603,243,1368,2139,1369
980,161,160,728,491,187,864,863,527,526,2135
981,213,1221,491,214,1359,2134,598,240,1360,597
982,715,157,156,485,851,183,852,1988,515,514
983,210,485,1210,209,589,1991,1348,236,590,1347
984,230,231,1229,493,257,1411,1410,632,631,2003
985,176,731,497,175,908,2037,572,202,909,571
986,167,166,719,474,193,882,881,545,544,1945
987,474,220,219,1214,609,246,610,1946,1378,1377
988,1226,226,227,495,1398,253,1399,1981,624,623
989,1219,117,116,316,1310,143,1311,2018,453,452
990,178,735,493,177,914,2005,578,204,915,577
991,159,158,734,488,185,858,857,521,520,1872
992,211,1228,488,212,1353,1876,594,238,1354,593
993,66,67,730,327,93,824,823,400,399,1796
994,723,165,164,483,875,191,876,1910,539,538
995,218,217,483,1217,244,606,605,1372,1371,1912
996,162,161,727,477,188,867,866,530,529,1904
997,215,214,477,1220,241,600,599,1363,1362,1908
998,667,1227,732,666,1684,2250,1063,1059,1685,1062
999,667,732,1227,1178,1063,2250,1684,1801,2048,1526
1000,1195,732,1227,666,1929,2250,1589,2089,1062,1685
1001,1195,1227,732,1178,1589,2250,1929,1604,1526,2048
1002,655,1142,334,1181,1776,1949,1779,1700,1330,1777
1003,655,334,1142,708,1779,1949,1776,834,1950,1792
1004,1186,640,724,1135,1805,946,1859,1391,1753,2042
1005,724,640,1186,709,946,1805,1859,948,895,1814
1006,1173,708,743,668,1739,1027,2146,1738,1033,1070
1007,743,708,1173,1142,1027,1739,2146,2087,1792,1481
1008,1150,687,667,1177,1759,1061,2251,1336,1790,2012
1009,667,687,1150,665,1061,1759,2251,1060,840,1734
1010,667,1178,1150,1177,1801,1525,2251,2012,1524,1336
1011,1187,742,684,1238,1823,1012,2070,1598,1783,1784
1012,684,742,1187,685,1012,1823,2070,1101,1105,2131
1013,639,1234,1188,1134,1634,1439,1879,1880,1436,1437
1014,1188,1234,639,741,1439,1634,1879,1633,1631,939
1015,1183,722,692,691,2225,1114,1986,2007,1113,1112
1016,692,722,1183,1239,1114,2225,1986,1942,2169,1609
1017,330,1150,687,321,2222,1759,1973,416,1756,1758
1018,687,1150,330,1177,1759,2222,1973,1790,1336,1972
1019,685,1186,710,709,1860,1939,1103,1109,1814,898
1020,685,710,1186,1187,1103,1939,1860,2131,2021,1613
1021,741,1164,674,673,1632,2058,940,1082,1841,1078
1022,674,1164,741,1234,2058,1632,940,1635,1571,1631
1023,1171,1174,683,1151,1529,2107,2252,1324,1530,2039
1024,683,1174,1171,654,2107,1529,2252,1022,2192,2053
1025,683,730,1171,1151,1023,1794,2252,2039,1839,1324
1026,1171,730,683,654,1794,1023,2252,2053,828,1022
1027,668,1236,1225,1173,2097,1539,2046,1738,1592,1584
1028,668,1225,1236,740,2046,1539,2097,1069,2045,2096
1029,1180,667,1235,689,1800,1871,1468,1836,1067,1838
1030,1235,667,1180,1178,1871,1800,1468,1603,1801,1602
1031,652,1224,1238,742,1835,1513,1785,1011,1824,1783
1032,652,1238,1224,1147,1785,1513,1835,2145,1512,1509
1033,334,1142,122,1181,1949,1325,464,1777,1330,1329
1034,334,122,1142,335,464,1325,1949,410,463,1948
1035,654,1172,1142,743,2202,1479,2049,1026,2201,2087
1036,654,1142,1172,1171,2049,1479,2202,2053,1327,1480
1037,707,1213,649,718,1750,2001,813,994,1749,995
1038,707,649,1213,1205,813,2001,1750,1861,1921,1494
1039,1213,649,1239,1144,2001,2170,1495,1493,2002,1492
1040,1239,649,1213,718,2170,2001,1495,1943,995,1749
1041,1177,688,667,1179,1788,1066,2012,1456,1864,1802
1042,1177,667,688,687,2012,1066,1788,1790,1061,959
1043,493,1140,230,484,2004,1408,632,579,2099,629
1044,493,230,1140,1229,632,1408,2004,2003,1410,1412
1045,732,1140,689,645,1928,1837,974,971,2164,973
1046,732,689,1140,1235,974,1837,1928,1870,1838,1467
1047,691,1182,692,1183,2008,1987,1112,2007,1440,1986
1048,691,692,1182,690,1112,1987,2008,945,941,2028
1049,1182,692,639,690,1987,942,1881,2028,941,889
1050,639,692,1182,1188,942,1987,1881,1879,1845,1438
1051,1152,740,686,647,2127,986,2133,2132,983,984
1052,686,740,1152,1225,986,2127,2133,2162,2045,1535
1053,688,689,1180,717,1068,1836,2253,1111,1036,2194
1054,1180,1212,688,717,1520,2082,2253,2194,2196,1111
1055,688,1212,1180,1179,2082,1520,2253,1864,1605,1601
1056,647,497,175,498,2065,571,905,2175,573,569
1057,647,175,497,731,905,571,2065,910,909,2037
1058,474,1134,220,1214,2072,1380,609,1946,1382,1378
1059,474,220,1134,481,609,1380,2072,549,612,2010
1060,481,719,1134,474,2243,2006,2010,549,1945,2072
1061,481,1134,719,639,2010,2006,2243,2011,1880,886
1062,1150,667,1227,1178,2251,1684,1527,1525,1801,1526
1063,1227,667,1150,665,1684,2251,1527,1686,1060,1734
1064,1180,688,667,689,2253,1066,1800,1836,1068,1067
1065,667,688,1180,1179,1066,2253,1800,1802,1864,1601
*NSET,NSET=FIXED
1,2,3,4,9,10,11,12,13,14,15,16
17,18,19,20,21,22,23,24,25,26,27,28
261,262,263,264,265,266,267,268,269,270,271,272
273,274,275,276,277,278,279,280,281,282,283,284
285
*NSET,NSET=TIP
5,6,7,8,29,30,31,32,33,34,35,36
37,38,39,40,41,42,43,44,45,46,47,48
286,287,288,289,290,291,292,293,294,295,296,297
298,299,300,301,302,303,304,305,306,307,308,309
310
*MATERIAL,NAME=REFERENCE
*ELASTIC
2000.0,0.35
*SOLID SECTION,ELSET=SOLID,MATERIAL=REFERENCE
*BOUNDARY
FIXED,1,3
*STEP
*STATIC
*CLOAD
5,3,-0.0020408163265306
6,3,-0.0020408163265306
7,3,-0.0020408163265306
8,3,-0.0020408163265306
29,3,-0.0020408163265306
30,3,-0.0020408163265306
31,3,-0.0020408163265306
32,3,-0.0020408163265306
33,3,-0.0020408163265306
34,3,-0.0020408163265306
35,3,-0.0020408163265306
36,3,-0.0020408163265306
37,3,-0.0020408163265306
38,3,-0.0020408163265306
39,3,-0.0020408163265306
40,3,-0.0020408163265306
41,3,-0.0020408163265306
42,3,-0.0020408163265306
43,3,-0.0020408163265306
44,3,-0.0020408163265306
45,3,-0.0020408163265306
46,3,-0.0020408163265306
47,3,-0.0020408163265306
48,3,-0.0020408163265306
286,3,-0.0020408163265306
287,3,-0.0020408163265306
288,3,-0.0020408163265306
289,3,-0.0020408163265306
290,3,-0.0020408163265306
291,3,-0.0020408163265306
292,3,-0.0020408163265306
293,3,-0.0020408163265306
294,3,-0.0020408163265306
295,3,-0.0020408163265306
296,3,-0.0020408163265306
297,3,-0.0020408163265306
298,3,-0.0020408163265306
299,3,-0.0020408163265306
300,3,-0.0020408163265306
301,3,-0.0020408163265306
302,3,-0.0020408163265306
303,3,-0.0020408163265306
304,3,-0.0020408163265306
305,3,-0.0020408163265306
306,3,-0.0020408163265306
307,3,-0.0020408163265306
308,3,-0.0020408163265306
309,3,-0.0020408163265306
310,3,-0.0020408163265306
*NODE PRINT,NSET=TIP
U
*NODE PRINT,NSET=FIXED,TOTALS=YES
RF
*END STEP
